%[[0, 27, 12, 24, 28, 13, 1], [8, 0, 30, 16, 15, 12, 29], [25, 26, 0, 9, 30, 15, 11], [18, 28, 29, 0, 6, 16, 4], [9, 4, 24, 3, 0, 19, 25], [8, 29, 17, 22, 25, 0, 19], [28, 4, 9, 3, 23, 2, 0]]%request(ID, (edge), number of request passenger)
request(0, (lga, jfk), 8).
request(1, (teb, jfk), 25).
request(2, (ryend, jfk), 18).
request(3, (cri, jfk), 9).
request(4, (cimbl, jfk), 8).
request(5, (dandy, jfk), 28).
request(6, (jfk, lga), 27).
request(7, (teb, lga), 26).
request(8, (ryend, lga), 28).
request(9, (cri, lga), 4).
request(10, (cimbl, lga), 29).
request(11, (dandy, lga), 4).
request(12, (jfk, teb), 12).
request(13, (lga, teb), 30).
request(14, (ryend, teb), 29).
request(15, (cri, teb), 24).
request(16, (cimbl, teb), 17).
request(17, (dandy, teb), 9).
request(18, (jfk, ryend), 24).
request(19, (lga, ryend), 16).
request(20, (teb, ryend), 9).
request(21, (cri, ryend), 3).
request(22, (cimbl, ryend), 22).
request(23, (dandy, ryend), 3).
request(24, (jfk, cri), 28).
request(25, (lga, cri), 15).
request(26, (teb, cri), 30).
request(27, (ryend, cri), 6).
request(28, (cimbl, cri), 25).
request(29, (dandy, cri), 23).
request(30, (jfk, cimbl), 13).
request(31, (lga, cimbl), 12).
request(32, (teb, cimbl), 15).
request(33, (ryend, cimbl), 16).
request(34, (cri, cimbl), 19).
request(35, (dandy, cimbl), 2).
request(36, (jfk, dandy), 1).
request(37, (lga, dandy), 29).
request(38, (teb, dandy), 11).
request(39, (ryend, dandy), 4).
request(40, (cri, dandy), 25).
request(41, (cimbl, dandy), 19).
