%[[0, 14, 27, 17, 27, 29, 24], [14, 0, 14, 16, 27, 18, 6], [5, 25, 0, 16, 15, 20, 19], [25, 5, 3, 0, 14, 9, 4], [2, 17, 25, 28, 0, 22, 20], [1, 19, 12, 30, 14, 0, 20], [23, 19, 20, 5, 19, 0, 0]]%request(ID, (edge), number of request passenger)
request(0, (lga, jfk), 14).
request(1, (teb, jfk), 5).
request(2, (ryend, jfk), 25).
request(3, (cri, jfk), 2).
request(4, (cimbl, jfk), 1).
request(5, (dandy, jfk), 23).
request(6, (jfk, lga), 14).
request(7, (teb, lga), 25).
request(8, (ryend, lga), 5).
request(9, (cri, lga), 17).
request(10, (cimbl, lga), 19).
request(11, (dandy, lga), 19).
request(12, (jfk, teb), 27).
request(13, (lga, teb), 14).
request(14, (ryend, teb), 3).
request(15, (cri, teb), 25).
request(16, (cimbl, teb), 12).
request(17, (dandy, teb), 20).
request(18, (jfk, ryend), 17).
request(19, (lga, ryend), 16).
request(20, (teb, ryend), 16).
request(21, (cri, ryend), 28).
request(22, (cimbl, ryend), 30).
request(23, (dandy, ryend), 5).
request(24, (jfk, cri), 27).
request(25, (lga, cri), 27).
request(26, (teb, cri), 15).
request(27, (ryend, cri), 14).
request(28, (cimbl, cri), 14).
request(29, (dandy, cri), 19).
request(30, (jfk, cimbl), 29).
request(31, (lga, cimbl), 18).
request(32, (teb, cimbl), 20).
request(33, (ryend, cimbl), 9).
request(34, (cri, cimbl), 22).
request(35, (dandy, cimbl), 0).
request(36, (jfk, dandy), 24).
request(37, (lga, dandy), 6).
request(38, (teb, dandy), 19).
request(39, (ryend, dandy), 4).
request(40, (cri, dandy), 20).
request(41, (cimbl, dandy), 20).
