%[[0, 15, 8, 21, 16, 21, 11], [4, 0, 12, 0, 11, 15, 8], [20, 25, 0, 14, 22, 27, 19], [7, 17, 0, 0, 21, 19, 4], [14, 11, 5, 10, 0, 28, 6], [1, 18, 26, 6, 2, 0, 16], [21, 26, 10, 21, 12, 25, 0]]%request(ID, (edge), number of request passenger)
request(0, (lga, jfk), 4).
request(1, (teb, jfk), 20).
request(2, (ryend, jfk), 7).
request(3, (cri, jfk), 14).
request(4, (cimbl, jfk), 1).
request(5, (dandy, jfk), 21).
request(6, (jfk, lga), 15).
request(7, (teb, lga), 25).
request(8, (ryend, lga), 17).
request(9, (cri, lga), 11).
request(10, (cimbl, lga), 18).
request(11, (dandy, lga), 26).
request(12, (jfk, teb), 8).
request(13, (lga, teb), 12).
request(14, (ryend, teb), 0).
request(15, (cri, teb), 5).
request(16, (cimbl, teb), 26).
request(17, (dandy, teb), 10).
request(18, (jfk, ryend), 21).
request(19, (lga, ryend), 0).
request(20, (teb, ryend), 14).
request(21, (cri, ryend), 10).
request(22, (cimbl, ryend), 6).
request(23, (dandy, ryend), 21).
request(24, (jfk, cri), 16).
request(25, (lga, cri), 11).
request(26, (teb, cri), 22).
request(27, (ryend, cri), 21).
request(28, (cimbl, cri), 2).
request(29, (dandy, cri), 12).
request(30, (jfk, cimbl), 21).
request(31, (lga, cimbl), 15).
request(32, (teb, cimbl), 27).
request(33, (ryend, cimbl), 19).
request(34, (cri, cimbl), 28).
request(35, (dandy, cimbl), 25).
request(36, (jfk, dandy), 11).
request(37, (lga, dandy), 8).
request(38, (teb, dandy), 19).
request(39, (ryend, dandy), 4).
request(40, (cri, dandy), 6).
request(41, (cimbl, dandy), 16).
