%[[0, 3, 19, 22, 24, 20, 16], [30, 0, 7, 8, 23, 8, 9], [23, 2, 0, 21, 14, 9, 14], [21, 27, 12, 0, 12, 24, 29], [3, 8, 7, 27, 0, 28, 10], [11, 25, 8, 11, 25, 0, 20], [20, 16, 4, 5, 17, 21, 0]]%request(ID, (edge), number of request passenger)
request(0, (lga, jfk), 30).
request(1, (teb, jfk), 23).
request(2, (ryend, jfk), 21).
request(3, (cri, jfk), 3).
request(4, (cimbl, jfk), 11).
request(5, (dandy, jfk), 20).
request(6, (jfk, lga), 3).
request(7, (teb, lga), 2).
request(8, (ryend, lga), 27).
request(9, (cri, lga), 8).
request(10, (cimbl, lga), 25).
request(11, (dandy, lga), 16).
request(12, (jfk, teb), 19).
request(13, (lga, teb), 7).
request(14, (ryend, teb), 12).
request(15, (cri, teb), 7).
request(16, (cimbl, teb), 8).
request(17, (dandy, teb), 4).
request(18, (jfk, ryend), 22).
request(19, (lga, ryend), 8).
request(20, (teb, ryend), 21).
request(21, (cri, ryend), 27).
request(22, (cimbl, ryend), 11).
request(23, (dandy, ryend), 5).
request(24, (jfk, cri), 24).
request(25, (lga, cri), 23).
request(26, (teb, cri), 14).
request(27, (ryend, cri), 12).
request(28, (cimbl, cri), 25).
request(29, (dandy, cri), 17).
request(30, (jfk, cimbl), 20).
request(31, (lga, cimbl), 8).
request(32, (teb, cimbl), 9).
request(33, (ryend, cimbl), 24).
request(34, (cri, cimbl), 28).
request(35, (dandy, cimbl), 21).
request(36, (jfk, dandy), 16).
request(37, (lga, dandy), 9).
request(38, (teb, dandy), 14).
request(39, (ryend, dandy), 29).
request(40, (cri, dandy), 10).
request(41, (cimbl, dandy), 20).
