%[[0, 5, 3, 21, 14, 10, 7], [6, 0, 30, 15, 20, 15, 5], [15, 9, 0, 14, 28, 8, 6], [8, 28, 22, 0, 3, 10, 16], [21, 24, 25, 5, 0, 27, 30], [30, 25, 7, 5, 7, 0, 6], [23, 11, 18, 16, 6, 25, 0]]%request(ID, (edge), number of request passenger)
request(0, (lga, jfk), 6).
request(1, (teb, jfk), 15).
request(2, (ryend, jfk), 8).
request(3, (cri, jfk), 21).
request(4, (cimbl, jfk), 30).
request(5, (dandy, jfk), 23).
request(6, (jfk, lga), 5).
request(7, (teb, lga), 9).
request(8, (ryend, lga), 28).
request(9, (cri, lga), 24).
request(10, (cimbl, lga), 25).
request(11, (dandy, lga), 11).
request(12, (jfk, teb), 3).
request(13, (lga, teb), 30).
request(14, (ryend, teb), 22).
request(15, (cri, teb), 25).
request(16, (cimbl, teb), 7).
request(17, (dandy, teb), 18).
request(18, (jfk, ryend), 21).
request(19, (lga, ryend), 15).
request(20, (teb, ryend), 14).
request(21, (cri, ryend), 5).
request(22, (cimbl, ryend), 5).
request(23, (dandy, ryend), 16).
request(24, (jfk, cri), 14).
request(25, (lga, cri), 20).
request(26, (teb, cri), 28).
request(27, (ryend, cri), 3).
request(28, (cimbl, cri), 7).
request(29, (dandy, cri), 6).
request(30, (jfk, cimbl), 10).
request(31, (lga, cimbl), 15).
request(32, (teb, cimbl), 8).
request(33, (ryend, cimbl), 10).
request(34, (cri, cimbl), 27).
request(35, (dandy, cimbl), 25).
request(36, (jfk, dandy), 7).
request(37, (lga, dandy), 5).
request(38, (teb, dandy), 6).
request(39, (ryend, dandy), 16).
request(40, (cri, dandy), 30).
request(41, (cimbl, dandy), 6).
