%[[0, 4, 18, 27, 25, 24, 2], [8, 0, 3, 15, 24, 14, 15], [20, 12, 0, 25, 6, 3, 15], [0, 28, 26, 0, 12, 13, 19], [24, 24, 0, 22, 0, 14, 8], [23, 25, 7, 18, 30, 0, 3], [28, 10, 0, 0, 0, 20, 0]]%request(ID, (edge), number of request passenger)
request(0, (lga, jfk), 8).
request(1, (teb, jfk), 20).
request(2, (ryend, jfk), 0).
request(3, (cri, jfk), 24).
request(4, (cimbl, jfk), 23).
request(5, (dandy, jfk), 28).
request(6, (jfk, lga), 4).
request(7, (teb, lga), 12).
request(8, (ryend, lga), 28).
request(9, (cri, lga), 24).
request(10, (cimbl, lga), 25).
request(11, (dandy, lga), 10).
request(12, (jfk, teb), 18).
request(13, (lga, teb), 3).
request(14, (ryend, teb), 26).
request(15, (cri, teb), 0).
request(16, (cimbl, teb), 7).
request(17, (dandy, teb), 0).
request(18, (jfk, ryend), 27).
request(19, (lga, ryend), 15).
request(20, (teb, ryend), 25).
request(21, (cri, ryend), 22).
request(22, (cimbl, ryend), 18).
request(23, (dandy, ryend), 0).
request(24, (jfk, cri), 25).
request(25, (lga, cri), 24).
request(26, (teb, cri), 6).
request(27, (ryend, cri), 12).
request(28, (cimbl, cri), 30).
request(29, (dandy, cri), 0).
request(30, (jfk, cimbl), 24).
request(31, (lga, cimbl), 14).
request(32, (teb, cimbl), 3).
request(33, (ryend, cimbl), 13).
request(34, (cri, cimbl), 14).
request(35, (dandy, cimbl), 20).
request(36, (jfk, dandy), 2).
request(37, (lga, dandy), 15).
request(38, (teb, dandy), 15).
request(39, (ryend, dandy), 19).
request(40, (cri, dandy), 8).
request(41, (cimbl, dandy), 3).
