%[[0, 21, 1, 25, 28, 16, 3], [16, 0, 6, 12, 11, 16, 9], [18, 4, 0, 19, 8, 3, 8], [13, 10, 30, 0, 8, 26, 3], [24, 10, 28, 9, 0, 0, 18], [19, 6, 28, 2, 29, 0, 6], [3, 17, 14, 12, 27, 23, 0]]%request(ID, (edge), number of request passenger)
request(0, (lga, jfk), 16).
request(1, (teb, jfk), 18).
request(2, (ryend, jfk), 13).
request(3, (cri, jfk), 24).
request(4, (cimbl, jfk), 19).
request(5, (dandy, jfk), 3).
request(6, (jfk, lga), 21).
request(7, (teb, lga), 4).
request(8, (ryend, lga), 10).
request(9, (cri, lga), 10).
request(10, (cimbl, lga), 6).
request(11, (dandy, lga), 17).
request(12, (jfk, teb), 1).
request(13, (lga, teb), 6).
request(14, (ryend, teb), 30).
request(15, (cri, teb), 28).
request(16, (cimbl, teb), 28).
request(17, (dandy, teb), 14).
request(18, (jfk, ryend), 25).
request(19, (lga, ryend), 12).
request(20, (teb, ryend), 19).
request(21, (cri, ryend), 9).
request(22, (cimbl, ryend), 2).
request(23, (dandy, ryend), 12).
request(24, (jfk, cri), 28).
request(25, (lga, cri), 11).
request(26, (teb, cri), 8).
request(27, (ryend, cri), 8).
request(28, (cimbl, cri), 29).
request(29, (dandy, cri), 27).
request(30, (jfk, cimbl), 16).
request(31, (lga, cimbl), 16).
request(32, (teb, cimbl), 3).
request(33, (ryend, cimbl), 26).
request(34, (cri, cimbl), 0).
request(35, (dandy, cimbl), 23).
request(36, (jfk, dandy), 3).
request(37, (lga, dandy), 9).
request(38, (teb, dandy), 8).
request(39, (ryend, dandy), 3).
request(40, (cri, dandy), 18).
request(41, (cimbl, dandy), 6).
