%[[0, 11, 15, 15, 9, 13, 7], [14, 0, 0, 13, 27, 21, 22], [8, 7, 0, 20, 7, 0, 9], [9, 26, 10, 0, 21, 4, 30], [23, 19, 9, 0, 0, 25, 7], [30, 19, 8, 0, 28, 0, 4], [25, 19, 21, 20, 0, 14, 0]]%request(ID, (edge), number of request passenger)
request(0, (lga, jfk), 14).
request(1, (teb, jfk), 8).
request(2, (ryend, jfk), 9).
request(3, (cri, jfk), 23).
request(4, (cimbl, jfk), 30).
request(5, (dandy, jfk), 25).
request(6, (jfk, lga), 11).
request(7, (teb, lga), 7).
request(8, (ryend, lga), 26).
request(9, (cri, lga), 19).
request(10, (cimbl, lga), 19).
request(11, (dandy, lga), 19).
request(12, (jfk, teb), 15).
request(13, (lga, teb), 0).
request(14, (ryend, teb), 10).
request(15, (cri, teb), 9).
request(16, (cimbl, teb), 8).
request(17, (dandy, teb), 21).
request(18, (jfk, ryend), 15).
request(19, (lga, ryend), 13).
request(20, (teb, ryend), 20).
request(21, (cri, ryend), 0).
request(22, (cimbl, ryend), 0).
request(23, (dandy, ryend), 20).
request(24, (jfk, cri), 9).
request(25, (lga, cri), 27).
request(26, (teb, cri), 7).
request(27, (ryend, cri), 21).
request(28, (cimbl, cri), 28).
request(29, (dandy, cri), 0).
request(30, (jfk, cimbl), 13).
request(31, (lga, cimbl), 21).
request(32, (teb, cimbl), 0).
request(33, (ryend, cimbl), 4).
request(34, (cri, cimbl), 25).
request(35, (dandy, cimbl), 14).
request(36, (jfk, dandy), 7).
request(37, (lga, dandy), 22).
request(38, (teb, dandy), 9).
request(39, (ryend, dandy), 30).
request(40, (cri, dandy), 7).
request(41, (cimbl, dandy), 4).
