%[[0, 18, 1, 13, 15, 18, 0], [6, 0, 14, 26, 15, 26, 8], [20, 25, 0, 5, 1, 16, 15], [10, 2, 7, 0, 30, 30, 23], [11, 1, 13, 27, 0, 4, 19], [11, 12, 13, 9, 26, 0, 21], [8, 14, 5, 21, 9, 21, 0]]%request(ID, (edge), number of request passenger)
request(0, (lga, jfk), 6).
request(1, (teb, jfk), 20).
request(2, (ryend, jfk), 10).
request(3, (cri, jfk), 11).
request(4, (cimbl, jfk), 11).
request(5, (dandy, jfk), 8).
request(6, (jfk, lga), 18).
request(7, (teb, lga), 25).
request(8, (ryend, lga), 2).
request(9, (cri, lga), 1).
request(10, (cimbl, lga), 12).
request(11, (dandy, lga), 14).
request(12, (jfk, teb), 1).
request(13, (lga, teb), 14).
request(14, (ryend, teb), 7).
request(15, (cri, teb), 13).
request(16, (cimbl, teb), 13).
request(17, (dandy, teb), 5).
request(18, (jfk, ryend), 13).
request(19, (lga, ryend), 26).
request(20, (teb, ryend), 5).
request(21, (cri, ryend), 27).
request(22, (cimbl, ryend), 9).
request(23, (dandy, ryend), 21).
request(24, (jfk, cri), 15).
request(25, (lga, cri), 15).
request(26, (teb, cri), 1).
request(27, (ryend, cri), 30).
request(28, (cimbl, cri), 26).
request(29, (dandy, cri), 9).
request(30, (jfk, cimbl), 18).
request(31, (lga, cimbl), 26).
request(32, (teb, cimbl), 16).
request(33, (ryend, cimbl), 30).
request(34, (cri, cimbl), 4).
request(35, (dandy, cimbl), 21).
request(36, (jfk, dandy), 0).
request(37, (lga, dandy), 8).
request(38, (teb, dandy), 15).
request(39, (ryend, dandy), 23).
request(40, (cri, dandy), 19).
request(41, (cimbl, dandy), 21).
