%[[0, 16, 13, 25, 9, 30, 11], [9, 0, 5, 24, 22, 22, 17], [21, 8, 0, 3, 29, 0, 7], [12, 26, 23, 0, 13, 8, 27], [16, 25, 10, 20, 0, 27, 21], [30, 23, 12, 4, 17, 0, 1], [4, 26, 25, 28, 6, 4, 0]]%request(ID, (edge), number of request passenger)
request(0, (lga, jfk), 9).
request(1, (teb, jfk), 21).
request(2, (ryend, jfk), 12).
request(3, (cri, jfk), 16).
request(4, (cimbl, jfk), 30).
request(5, (dandy, jfk), 4).
request(6, (jfk, lga), 16).
request(7, (teb, lga), 8).
request(8, (ryend, lga), 26).
request(9, (cri, lga), 25).
request(10, (cimbl, lga), 23).
request(11, (dandy, lga), 26).
request(12, (jfk, teb), 13).
request(13, (lga, teb), 5).
request(14, (ryend, teb), 23).
request(15, (cri, teb), 10).
request(16, (cimbl, teb), 12).
request(17, (dandy, teb), 25).
request(18, (jfk, ryend), 25).
request(19, (lga, ryend), 24).
request(20, (teb, ryend), 3).
request(21, (cri, ryend), 20).
request(22, (cimbl, ryend), 4).
request(23, (dandy, ryend), 28).
request(24, (jfk, cri), 9).
request(25, (lga, cri), 22).
request(26, (teb, cri), 29).
request(27, (ryend, cri), 13).
request(28, (cimbl, cri), 17).
request(29, (dandy, cri), 6).
request(30, (jfk, cimbl), 30).
request(31, (lga, cimbl), 22).
request(32, (teb, cimbl), 0).
request(33, (ryend, cimbl), 8).
request(34, (cri, cimbl), 27).
request(35, (dandy, cimbl), 4).
request(36, (jfk, dandy), 11).
request(37, (lga, dandy), 17).
request(38, (teb, dandy), 7).
request(39, (ryend, dandy), 27).
request(40, (cri, dandy), 21).
request(41, (cimbl, dandy), 1).
