%[[0, 8, 9, 21, 29, 21, 25], [27, 0, 28, 5, 20, 7, 21], [4, 27, 0, 7, 20, 23, 5], [4, 2, 17, 0, 27, 6, 23], [9, 0, 13, 4, 0, 26, 21], [19, 0, 8, 26, 4, 0, 2], [27, 25, 25, 28, 25, 8, 0]]%request(ID, (edge), number of request passenger)
request(0, (lga, jfk), 27).
request(1, (teb, jfk), 4).
request(2, (ryend, jfk), 4).
request(3, (cri, jfk), 9).
request(4, (cimbl, jfk), 19).
request(5, (dandy, jfk), 27).
request(6, (jfk, lga), 8).
request(7, (teb, lga), 27).
request(8, (ryend, lga), 2).
request(9, (cri, lga), 0).
request(10, (cimbl, lga), 0).
request(11, (dandy, lga), 25).
request(12, (jfk, teb), 9).
request(13, (lga, teb), 28).
request(14, (ryend, teb), 17).
request(15, (cri, teb), 13).
request(16, (cimbl, teb), 8).
request(17, (dandy, teb), 25).
request(18, (jfk, ryend), 21).
request(19, (lga, ryend), 5).
request(20, (teb, ryend), 7).
request(21, (cri, ryend), 4).
request(22, (cimbl, ryend), 26).
request(23, (dandy, ryend), 28).
request(24, (jfk, cri), 29).
request(25, (lga, cri), 20).
request(26, (teb, cri), 20).
request(27, (ryend, cri), 27).
request(28, (cimbl, cri), 4).
request(29, (dandy, cri), 25).
request(30, (jfk, cimbl), 21).
request(31, (lga, cimbl), 7).
request(32, (teb, cimbl), 23).
request(33, (ryend, cimbl), 6).
request(34, (cri, cimbl), 26).
request(35, (dandy, cimbl), 8).
request(36, (jfk, dandy), 25).
request(37, (lga, dandy), 21).
request(38, (teb, dandy), 5).
request(39, (ryend, dandy), 23).
request(40, (cri, dandy), 21).
request(41, (cimbl, dandy), 2).
