%[[0, 30, 6, 0, 16, 23, 1], [5, 0, 29, 7, 0, 1, 28], [25, 21, 0, 4, 27, 22, 11], [7, 3, 10, 0, 14, 22, 11], [8, 12, 8, 11, 0, 7, 29], [27, 6, 27, 11, 25, 0, 10], [7, 9, 29, 23, 16, 13, 0]]%request(ID, (edge), number of request passenger)
request(0, (lga, jfk), 5).
request(1, (teb, jfk), 25).
request(2, (ryend, jfk), 7).
request(3, (cri, jfk), 8).
request(4, (cimbl, jfk), 27).
request(5, (dandy, jfk), 7).
request(6, (jfk, lga), 30).
request(7, (teb, lga), 21).
request(8, (ryend, lga), 3).
request(9, (cri, lga), 12).
request(10, (cimbl, lga), 6).
request(11, (dandy, lga), 9).
request(12, (jfk, teb), 6).
request(13, (lga, teb), 29).
request(14, (ryend, teb), 10).
request(15, (cri, teb), 8).
request(16, (cimbl, teb), 27).
request(17, (dandy, teb), 29).
request(18, (jfk, ryend), 0).
request(19, (lga, ryend), 7).
request(20, (teb, ryend), 4).
request(21, (cri, ryend), 11).
request(22, (cimbl, ryend), 11).
request(23, (dandy, ryend), 23).
request(24, (jfk, cri), 16).
request(25, (lga, cri), 0).
request(26, (teb, cri), 27).
request(27, (ryend, cri), 14).
request(28, (cimbl, cri), 25).
request(29, (dandy, cri), 16).
request(30, (jfk, cimbl), 23).
request(31, (lga, cimbl), 1).
request(32, (teb, cimbl), 22).
request(33, (ryend, cimbl), 22).
request(34, (cri, cimbl), 7).
request(35, (dandy, cimbl), 13).
request(36, (jfk, dandy), 1).
request(37, (lga, dandy), 28).
request(38, (teb, dandy), 11).
request(39, (ryend, dandy), 11).
request(40, (cri, dandy), 29).
request(41, (cimbl, dandy), 10).
