%[[0, 17, 2, 11, 19, 27, 19], [9, 0, 2, 16, 29, 11, 12], [13, 0, 0, 1, 3, 27, 14], [20, 7, 25, 0, 11, 2, 15], [10, 29, 19, 17, 0, 13, 26], [23, 6, 14, 5, 7, 0, 13], [25, 13, 21, 25, 21, 18, 0]]%request(ID, (edge), number of request passenger)
request(0, (lga, jfk), 9).
request(1, (teb, jfk), 13).
request(2, (ryend, jfk), 20).
request(3, (cri, jfk), 10).
request(4, (cimbl, jfk), 23).
request(5, (dandy, jfk), 25).
request(6, (jfk, lga), 17).
request(7, (teb, lga), 0).
request(8, (ryend, lga), 7).
request(9, (cri, lga), 29).
request(10, (cimbl, lga), 6).
request(11, (dandy, lga), 13).
request(12, (jfk, teb), 2).
request(13, (lga, teb), 2).
request(14, (ryend, teb), 25).
request(15, (cri, teb), 19).
request(16, (cimbl, teb), 14).
request(17, (dandy, teb), 21).
request(18, (jfk, ryend), 11).
request(19, (lga, ryend), 16).
request(20, (teb, ryend), 1).
request(21, (cri, ryend), 17).
request(22, (cimbl, ryend), 5).
request(23, (dandy, ryend), 25).
request(24, (jfk, cri), 19).
request(25, (lga, cri), 29).
request(26, (teb, cri), 3).
request(27, (ryend, cri), 11).
request(28, (cimbl, cri), 7).
request(29, (dandy, cri), 21).
request(30, (jfk, cimbl), 27).
request(31, (lga, cimbl), 11).
request(32, (teb, cimbl), 27).
request(33, (ryend, cimbl), 2).
request(34, (cri, cimbl), 13).
request(35, (dandy, cimbl), 18).
request(36, (jfk, dandy), 19).
request(37, (lga, dandy), 12).
request(38, (teb, dandy), 14).
request(39, (ryend, dandy), 15).
request(40, (cri, dandy), 26).
request(41, (cimbl, dandy), 13).
