%[[0, 5, 13, 22, 13, 20, 9], [15, 0, 26, 6, 25, 15, 25], [30, 16, 0, 5, 16, 16, 7], [25, 0, 0, 0, 11, 29, 18], [13, 2, 4, 25, 0, 24, 7], [29, 7, 22, 1, 13, 0, 23], [24, 28, 13, 19, 14, 1, 0]]%request(ID, (edge), number of request passenger)
request(0, (lga, jfk), 15).
request(1, (teb, jfk), 30).
request(2, (ryend, jfk), 25).
request(3, (cri, jfk), 13).
request(4, (cimbl, jfk), 29).
request(5, (dandy, jfk), 24).
request(6, (jfk, lga), 5).
request(7, (teb, lga), 16).
request(8, (ryend, lga), 0).
request(9, (cri, lga), 2).
request(10, (cimbl, lga), 7).
request(11, (dandy, lga), 28).
request(12, (jfk, teb), 13).
request(13, (lga, teb), 26).
request(14, (ryend, teb), 0).
request(15, (cri, teb), 4).
request(16, (cimbl, teb), 22).
request(17, (dandy, teb), 13).
request(18, (jfk, ryend), 22).
request(19, (lga, ryend), 6).
request(20, (teb, ryend), 5).
request(21, (cri, ryend), 25).
request(22, (cimbl, ryend), 1).
request(23, (dandy, ryend), 19).
request(24, (jfk, cri), 13).
request(25, (lga, cri), 25).
request(26, (teb, cri), 16).
request(27, (ryend, cri), 11).
request(28, (cimbl, cri), 13).
request(29, (dandy, cri), 14).
request(30, (jfk, cimbl), 20).
request(31, (lga, cimbl), 15).
request(32, (teb, cimbl), 16).
request(33, (ryend, cimbl), 29).
request(34, (cri, cimbl), 24).
request(35, (dandy, cimbl), 1).
request(36, (jfk, dandy), 9).
request(37, (lga, dandy), 25).
request(38, (teb, dandy), 7).
request(39, (ryend, dandy), 18).
request(40, (cri, dandy), 7).
request(41, (cimbl, dandy), 23).
