%[[0, 12, 24, 29, 26, 26, 0], [6, 0, 29, 27, 9, 20, 15], [1, 27, 0, 30, 24, 8, 1], [9, 18, 13, 0, 3, 18, 27], [3, 18, 21, 23, 0, 26, 6], [16, 30, 25, 30, 19, 0, 10], [26, 29, 5, 17, 11, 16, 0]]%request(ID, (edge), number of request passenger)
request(0, (lga, jfk), 6).
request(1, (teb, jfk), 1).
request(2, (ryend, jfk), 9).
request(3, (cri, jfk), 3).
request(4, (cimbl, jfk), 16).
request(5, (dandy, jfk), 26).
request(6, (jfk, lga), 12).
request(7, (teb, lga), 27).
request(8, (ryend, lga), 18).
request(9, (cri, lga), 18).
request(10, (cimbl, lga), 30).
request(11, (dandy, lga), 29).
request(12, (jfk, teb), 24).
request(13, (lga, teb), 29).
request(14, (ryend, teb), 13).
request(15, (cri, teb), 21).
request(16, (cimbl, teb), 25).
request(17, (dandy, teb), 5).
request(18, (jfk, ryend), 29).
request(19, (lga, ryend), 27).
request(20, (teb, ryend), 30).
request(21, (cri, ryend), 23).
request(22, (cimbl, ryend), 30).
request(23, (dandy, ryend), 17).
request(24, (jfk, cri), 26).
request(25, (lga, cri), 9).
request(26, (teb, cri), 24).
request(27, (ryend, cri), 3).
request(28, (cimbl, cri), 19).
request(29, (dandy, cri), 11).
request(30, (jfk, cimbl), 26).
request(31, (lga, cimbl), 20).
request(32, (teb, cimbl), 8).
request(33, (ryend, cimbl), 18).
request(34, (cri, cimbl), 26).
request(35, (dandy, cimbl), 16).
request(36, (jfk, dandy), 0).
request(37, (lga, dandy), 15).
request(38, (teb, dandy), 1).
request(39, (ryend, dandy), 27).
request(40, (cri, dandy), 6).
request(41, (cimbl, dandy), 10).
