%[[0, 29, 24, 30, 9, 28, 26], [2, 0, 0, 18, 9, 13, 12], [16, 11, 0, 4, 23, 6, 8], [14, 0, 7, 0, 19, 14, 28], [0, 3, 2, 22, 0, 15, 13], [0, 16, 20, 23, 13, 0, 11], [24, 1, 6, 25, 1, 18, 0]]%request(ID, (edge), number of request passenger)
request(0, (lga, jfk), 2).
request(1, (teb, jfk), 16).
request(2, (ryend, jfk), 14).
request(3, (cri, jfk), 0).
request(4, (cimbl, jfk), 0).
request(5, (dandy, jfk), 24).
request(6, (jfk, lga), 29).
request(7, (teb, lga), 11).
request(8, (ryend, lga), 0).
request(9, (cri, lga), 3).
request(10, (cimbl, lga), 16).
request(11, (dandy, lga), 1).
request(12, (jfk, teb), 24).
request(13, (lga, teb), 0).
request(14, (ryend, teb), 7).
request(15, (cri, teb), 2).
request(16, (cimbl, teb), 20).
request(17, (dandy, teb), 6).
request(18, (jfk, ryend), 30).
request(19, (lga, ryend), 18).
request(20, (teb, ryend), 4).
request(21, (cri, ryend), 22).
request(22, (cimbl, ryend), 23).
request(23, (dandy, ryend), 25).
request(24, (jfk, cri), 9).
request(25, (lga, cri), 9).
request(26, (teb, cri), 23).
request(27, (ryend, cri), 19).
request(28, (cimbl, cri), 13).
request(29, (dandy, cri), 1).
request(30, (jfk, cimbl), 28).
request(31, (lga, cimbl), 13).
request(32, (teb, cimbl), 6).
request(33, (ryend, cimbl), 14).
request(34, (cri, cimbl), 15).
request(35, (dandy, cimbl), 18).
request(36, (jfk, dandy), 26).
request(37, (lga, dandy), 12).
request(38, (teb, dandy), 8).
request(39, (ryend, dandy), 28).
request(40, (cri, dandy), 13).
request(41, (cimbl, dandy), 11).
