%[[0, 22, 12, 26, 18, 5, 6], [5, 0, 6, 5, 21, 21, 2], [22, 24, 0, 4, 25, 22, 9], [23, 29, 24, 0, 0, 14, 14], [27, 23, 20, 3, 0, 0, 16], [5, 30, 15, 23, 27, 0, 14], [21, 9, 15, 30, 2, 21, 0]]%request(ID, (edge), number of request passenger)
request(0, (lga, jfk), 5).
request(1, (teb, jfk), 22).
request(2, (ryend, jfk), 23).
request(3, (cri, jfk), 27).
request(4, (cimbl, jfk), 5).
request(5, (dandy, jfk), 21).
request(6, (jfk, lga), 22).
request(7, (teb, lga), 24).
request(8, (ryend, lga), 29).
request(9, (cri, lga), 23).
request(10, (cimbl, lga), 30).
request(11, (dandy, lga), 9).
request(12, (jfk, teb), 12).
request(13, (lga, teb), 6).
request(14, (ryend, teb), 24).
request(15, (cri, teb), 20).
request(16, (cimbl, teb), 15).
request(17, (dandy, teb), 15).
request(18, (jfk, ryend), 26).
request(19, (lga, ryend), 5).
request(20, (teb, ryend), 4).
request(21, (cri, ryend), 3).
request(22, (cimbl, ryend), 23).
request(23, (dandy, ryend), 30).
request(24, (jfk, cri), 18).
request(25, (lga, cri), 21).
request(26, (teb, cri), 25).
request(27, (ryend, cri), 0).
request(28, (cimbl, cri), 27).
request(29, (dandy, cri), 2).
request(30, (jfk, cimbl), 5).
request(31, (lga, cimbl), 21).
request(32, (teb, cimbl), 22).
request(33, (ryend, cimbl), 14).
request(34, (cri, cimbl), 0).
request(35, (dandy, cimbl), 21).
request(36, (jfk, dandy), 6).
request(37, (lga, dandy), 2).
request(38, (teb, dandy), 9).
request(39, (ryend, dandy), 14).
request(40, (cri, dandy), 16).
request(41, (cimbl, dandy), 14).
