%[[0, 3, 23, 4, 17, 19, 22], [5, 0, 7, 4, 20, 14, 24], [13, 6, 0, 6, 4, 12, 5], [26, 30, 4, 0, 19, 6, 6], [0, 13, 7, 2, 0, 3, 13], [28, 10, 22, 26, 4, 0, 5], [28, 29, 16, 16, 22, 23, 0]]%request(ID, (edge), number of request passenger)
request(0, (lga, jfk), 5).
request(1, (teb, jfk), 13).
request(2, (ryend, jfk), 26).
request(3, (cri, jfk), 0).
request(4, (cimbl, jfk), 28).
request(5, (dandy, jfk), 28).
request(6, (jfk, lga), 3).
request(7, (teb, lga), 6).
request(8, (ryend, lga), 30).
request(9, (cri, lga), 13).
request(10, (cimbl, lga), 10).
request(11, (dandy, lga), 29).
request(12, (jfk, teb), 23).
request(13, (lga, teb), 7).
request(14, (ryend, teb), 4).
request(15, (cri, teb), 7).
request(16, (cimbl, teb), 22).
request(17, (dandy, teb), 16).
request(18, (jfk, ryend), 4).
request(19, (lga, ryend), 4).
request(20, (teb, ryend), 6).
request(21, (cri, ryend), 2).
request(22, (cimbl, ryend), 26).
request(23, (dandy, ryend), 16).
request(24, (jfk, cri), 17).
request(25, (lga, cri), 20).
request(26, (teb, cri), 4).
request(27, (ryend, cri), 19).
request(28, (cimbl, cri), 4).
request(29, (dandy, cri), 22).
request(30, (jfk, cimbl), 19).
request(31, (lga, cimbl), 14).
request(32, (teb, cimbl), 12).
request(33, (ryend, cimbl), 6).
request(34, (cri, cimbl), 3).
request(35, (dandy, cimbl), 23).
request(36, (jfk, dandy), 22).
request(37, (lga, dandy), 24).
request(38, (teb, dandy), 5).
request(39, (ryend, dandy), 6).
request(40, (cri, dandy), 13).
request(41, (cimbl, dandy), 5).
