%[[0, 30, 29, 4, 7, 0, 19], [14, 0, 5, 22, 3, 23, 20], [28, 11, 0, 25, 28, 2, 7], [8, 30, 1, 0, 10, 19, 5], [29, 17, 21, 23, 0, 29, 13], [22, 28, 1, 18, 28, 0, 0], [18, 8, 9, 13, 6, 5, 0]]%request(ID, (edge), number of request passenger)
request(0, (lga, jfk), 14).
request(1, (teb, jfk), 28).
request(2, (ryend, jfk), 8).
request(3, (cri, jfk), 29).
request(4, (cimbl, jfk), 22).
request(5, (dandy, jfk), 18).
request(6, (jfk, lga), 30).
request(7, (teb, lga), 11).
request(8, (ryend, lga), 30).
request(9, (cri, lga), 17).
request(10, (cimbl, lga), 28).
request(11, (dandy, lga), 8).
request(12, (jfk, teb), 29).
request(13, (lga, teb), 5).
request(14, (ryend, teb), 1).
request(15, (cri, teb), 21).
request(16, (cimbl, teb), 1).
request(17, (dandy, teb), 9).
request(18, (jfk, ryend), 4).
request(19, (lga, ryend), 22).
request(20, (teb, ryend), 25).
request(21, (cri, ryend), 23).
request(22, (cimbl, ryend), 18).
request(23, (dandy, ryend), 13).
request(24, (jfk, cri), 7).
request(25, (lga, cri), 3).
request(26, (teb, cri), 28).
request(27, (ryend, cri), 10).
request(28, (cimbl, cri), 28).
request(29, (dandy, cri), 6).
request(30, (jfk, cimbl), 0).
request(31, (lga, cimbl), 23).
request(32, (teb, cimbl), 2).
request(33, (ryend, cimbl), 19).
request(34, (cri, cimbl), 29).
request(35, (dandy, cimbl), 5).
request(36, (jfk, dandy), 19).
request(37, (lga, dandy), 20).
request(38, (teb, dandy), 7).
request(39, (ryend, dandy), 5).
request(40, (cri, dandy), 13).
request(41, (cimbl, dandy), 0).
