%[[0, 28, 23, 21, 25, 24, 28], [28, 0, 4, 8, 21, 20, 27], [28, 3, 0, 27, 10, 18, 28], [5, 0, 13, 0, 13, 2, 3], [4, 10, 15, 30, 0, 18, 14], [13, 6, 6, 10, 20, 0, 29], [21, 10, 10, 13, 2, 20, 0]]%request(ID, (edge), number of request passenger)
request(0, (lga, jfk), 28).
request(1, (teb, jfk), 28).
request(2, (ryend, jfk), 5).
request(3, (cri, jfk), 4).
request(4, (cimbl, jfk), 13).
request(5, (dandy, jfk), 21).
request(6, (jfk, lga), 28).
request(7, (teb, lga), 3).
request(8, (ryend, lga), 0).
request(9, (cri, lga), 10).
request(10, (cimbl, lga), 6).
request(11, (dandy, lga), 10).
request(12, (jfk, teb), 23).
request(13, (lga, teb), 4).
request(14, (ryend, teb), 13).
request(15, (cri, teb), 15).
request(16, (cimbl, teb), 6).
request(17, (dandy, teb), 10).
request(18, (jfk, ryend), 21).
request(19, (lga, ryend), 8).
request(20, (teb, ryend), 27).
request(21, (cri, ryend), 30).
request(22, (cimbl, ryend), 10).
request(23, (dandy, ryend), 13).
request(24, (jfk, cri), 25).
request(25, (lga, cri), 21).
request(26, (teb, cri), 10).
request(27, (ryend, cri), 13).
request(28, (cimbl, cri), 20).
request(29, (dandy, cri), 2).
request(30, (jfk, cimbl), 24).
request(31, (lga, cimbl), 20).
request(32, (teb, cimbl), 18).
request(33, (ryend, cimbl), 2).
request(34, (cri, cimbl), 18).
request(35, (dandy, cimbl), 20).
request(36, (jfk, dandy), 28).
request(37, (lga, dandy), 27).
request(38, (teb, dandy), 28).
request(39, (ryend, dandy), 3).
request(40, (cri, dandy), 14).
request(41, (cimbl, dandy), 29).
