%[[0, 20, 15, 22, 8, 30, 9], [6, 0, 2, 2, 8, 26, 17], [10, 8, 0, 11, 26, 26, 12], [5, 7, 29, 0, 7, 15, 26], [2, 23, 29, 20, 0, 18, 20], [2, 19, 26, 13, 24, 0, 13], [23, 1, 21, 14, 11, 0, 0]]%request(ID, (edge), number of request passenger)
request(0, (lga, jfk), 6).
request(1, (teb, jfk), 10).
request(2, (ryend, jfk), 5).
request(3, (cri, jfk), 2).
request(4, (cimbl, jfk), 2).
request(5, (dandy, jfk), 23).
request(6, (jfk, lga), 20).
request(7, (teb, lga), 8).
request(8, (ryend, lga), 7).
request(9, (cri, lga), 23).
request(10, (cimbl, lga), 19).
request(11, (dandy, lga), 1).
request(12, (jfk, teb), 15).
request(13, (lga, teb), 2).
request(14, (ryend, teb), 29).
request(15, (cri, teb), 29).
request(16, (cimbl, teb), 26).
request(17, (dandy, teb), 21).
request(18, (jfk, ryend), 22).
request(19, (lga, ryend), 2).
request(20, (teb, ryend), 11).
request(21, (cri, ryend), 20).
request(22, (cimbl, ryend), 13).
request(23, (dandy, ryend), 14).
request(24, (jfk, cri), 8).
request(25, (lga, cri), 8).
request(26, (teb, cri), 26).
request(27, (ryend, cri), 7).
request(28, (cimbl, cri), 24).
request(29, (dandy, cri), 11).
request(30, (jfk, cimbl), 30).
request(31, (lga, cimbl), 26).
request(32, (teb, cimbl), 26).
request(33, (ryend, cimbl), 15).
request(34, (cri, cimbl), 18).
request(35, (dandy, cimbl), 0).
request(36, (jfk, dandy), 9).
request(37, (lga, dandy), 17).
request(38, (teb, dandy), 12).
request(39, (ryend, dandy), 26).
request(40, (cri, dandy), 20).
request(41, (cimbl, dandy), 13).
