%[[0, 23, 29, 6, 21, 6, 13], [19, 0, 17, 1, 4, 24, 30], [24, 15, 0, 1, 23, 21, 19], [16, 5, 20, 0, 13, 30, 7], [23, 13, 22, 27, 0, 6, 25], [22, 27, 0, 21, 30, 0, 27], [7, 4, 4, 6, 19, 15, 0]]%request(ID, (edge), number of request passenger)
request(0, (lga, jfk), 19).
request(1, (teb, jfk), 24).
request(2, (ryend, jfk), 16).
request(3, (cri, jfk), 23).
request(4, (cimbl, jfk), 22).
request(5, (dandy, jfk), 7).
request(6, (jfk, lga), 23).
request(7, (teb, lga), 15).
request(8, (ryend, lga), 5).
request(9, (cri, lga), 13).
request(10, (cimbl, lga), 27).
request(11, (dandy, lga), 4).
request(12, (jfk, teb), 29).
request(13, (lga, teb), 17).
request(14, (ryend, teb), 20).
request(15, (cri, teb), 22).
request(16, (cimbl, teb), 0).
request(17, (dandy, teb), 4).
request(18, (jfk, ryend), 6).
request(19, (lga, ryend), 1).
request(20, (teb, ryend), 1).
request(21, (cri, ryend), 27).
request(22, (cimbl, ryend), 21).
request(23, (dandy, ryend), 6).
request(24, (jfk, cri), 21).
request(25, (lga, cri), 4).
request(26, (teb, cri), 23).
request(27, (ryend, cri), 13).
request(28, (cimbl, cri), 30).
request(29, (dandy, cri), 19).
request(30, (jfk, cimbl), 6).
request(31, (lga, cimbl), 24).
request(32, (teb, cimbl), 21).
request(33, (ryend, cimbl), 30).
request(34, (cri, cimbl), 6).
request(35, (dandy, cimbl), 15).
request(36, (jfk, dandy), 13).
request(37, (lga, dandy), 30).
request(38, (teb, dandy), 19).
request(39, (ryend, dandy), 7).
request(40, (cri, dandy), 25).
request(41, (cimbl, dandy), 27).
