%[[0, 30, 27, 30, 27, 1, 2], [2, 0, 11, 26, 5, 23, 25], [21, 27, 0, 9, 8, 19, 6], [19, 1, 18, 0, 21, 5, 13], [20, 12, 25, 23, 0, 27, 16], [30, 11, 17, 29, 14, 0, 16], [8, 28, 1, 27, 0, 11, 0]]%request(ID, (edge), number of request passenger)
request(0, (lga, jfk), 2).
request(1, (teb, jfk), 21).
request(2, (ryend, jfk), 19).
request(3, (cri, jfk), 20).
request(4, (cimbl, jfk), 30).
request(5, (dandy, jfk), 8).
request(6, (jfk, lga), 30).
request(7, (teb, lga), 27).
request(8, (ryend, lga), 1).
request(9, (cri, lga), 12).
request(10, (cimbl, lga), 11).
request(11, (dandy, lga), 28).
request(12, (jfk, teb), 27).
request(13, (lga, teb), 11).
request(14, (ryend, teb), 18).
request(15, (cri, teb), 25).
request(16, (cimbl, teb), 17).
request(17, (dandy, teb), 1).
request(18, (jfk, ryend), 30).
request(19, (lga, ryend), 26).
request(20, (teb, ryend), 9).
request(21, (cri, ryend), 23).
request(22, (cimbl, ryend), 29).
request(23, (dandy, ryend), 27).
request(24, (jfk, cri), 27).
request(25, (lga, cri), 5).
request(26, (teb, cri), 8).
request(27, (ryend, cri), 21).
request(28, (cimbl, cri), 14).
request(29, (dandy, cri), 0).
request(30, (jfk, cimbl), 1).
request(31, (lga, cimbl), 23).
request(32, (teb, cimbl), 19).
request(33, (ryend, cimbl), 5).
request(34, (cri, cimbl), 27).
request(35, (dandy, cimbl), 11).
request(36, (jfk, dandy), 2).
request(37, (lga, dandy), 25).
request(38, (teb, dandy), 6).
request(39, (ryend, dandy), 13).
request(40, (cri, dandy), 16).
request(41, (cimbl, dandy), 16).
