%[[0, 16, 11, 18, 0, 26, 7], [28, 0, 0, 28, 12, 11, 30], [30, 2, 0, 13, 30, 9, 10], [3, 18, 16, 0, 26, 4, 3], [8, 11, 19, 0, 0, 24, 4], [24, 16, 2, 25, 1, 0, 11], [8, 23, 17, 22, 26, 1, 0]]%request(ID, (edge), number of request passenger)
request(0, (lga, jfk), 28).
request(1, (teb, jfk), 30).
request(2, (ryend, jfk), 3).
request(3, (cri, jfk), 8).
request(4, (cimbl, jfk), 24).
request(5, (dandy, jfk), 8).
request(6, (jfk, lga), 16).
request(7, (teb, lga), 2).
request(8, (ryend, lga), 18).
request(9, (cri, lga), 11).
request(10, (cimbl, lga), 16).
request(11, (dandy, lga), 23).
request(12, (jfk, teb), 11).
request(13, (lga, teb), 0).
request(14, (ryend, teb), 16).
request(15, (cri, teb), 19).
request(16, (cimbl, teb), 2).
request(17, (dandy, teb), 17).
request(18, (jfk, ryend), 18).
request(19, (lga, ryend), 28).
request(20, (teb, ryend), 13).
request(21, (cri, ryend), 0).
request(22, (cimbl, ryend), 25).
request(23, (dandy, ryend), 22).
request(24, (jfk, cri), 0).
request(25, (lga, cri), 12).
request(26, (teb, cri), 30).
request(27, (ryend, cri), 26).
request(28, (cimbl, cri), 1).
request(29, (dandy, cri), 26).
request(30, (jfk, cimbl), 26).
request(31, (lga, cimbl), 11).
request(32, (teb, cimbl), 9).
request(33, (ryend, cimbl), 4).
request(34, (cri, cimbl), 24).
request(35, (dandy, cimbl), 1).
request(36, (jfk, dandy), 7).
request(37, (lga, dandy), 30).
request(38, (teb, dandy), 10).
request(39, (ryend, dandy), 3).
request(40, (cri, dandy), 4).
request(41, (cimbl, dandy), 11).
