%[[0, 0, 15, 3, 24, 12, 4], [21, 0, 1, 4, 30, 3, 17], [7, 22, 0, 24, 4, 4, 23], [1, 21, 1, 0, 4, 7, 17], [23, 14, 16, 13, 0, 6, 18], [2, 3, 0, 24, 30, 0, 28], [12, 10, 6, 6, 10, 12, 0]]%request(ID, (edge), number of request passenger)
request(0, (lga, jfk), 21).
request(1, (teb, jfk), 7).
request(2, (ryend, jfk), 1).
request(3, (cri, jfk), 23).
request(4, (cimbl, jfk), 2).
request(5, (dandy, jfk), 12).
request(6, (jfk, lga), 0).
request(7, (teb, lga), 22).
request(8, (ryend, lga), 21).
request(9, (cri, lga), 14).
request(10, (cimbl, lga), 3).
request(11, (dandy, lga), 10).
request(12, (jfk, teb), 15).
request(13, (lga, teb), 1).
request(14, (ryend, teb), 1).
request(15, (cri, teb), 16).
request(16, (cimbl, teb), 0).
request(17, (dandy, teb), 6).
request(18, (jfk, ryend), 3).
request(19, (lga, ryend), 4).
request(20, (teb, ryend), 24).
request(21, (cri, ryend), 13).
request(22, (cimbl, ryend), 24).
request(23, (dandy, ryend), 6).
request(24, (jfk, cri), 24).
request(25, (lga, cri), 30).
request(26, (teb, cri), 4).
request(27, (ryend, cri), 4).
request(28, (cimbl, cri), 30).
request(29, (dandy, cri), 10).
request(30, (jfk, cimbl), 12).
request(31, (lga, cimbl), 3).
request(32, (teb, cimbl), 4).
request(33, (ryend, cimbl), 7).
request(34, (cri, cimbl), 6).
request(35, (dandy, cimbl), 12).
request(36, (jfk, dandy), 4).
request(37, (lga, dandy), 17).
request(38, (teb, dandy), 23).
request(39, (ryend, dandy), 17).
request(40, (cri, dandy), 18).
request(41, (cimbl, dandy), 28).
