%[[0, 6, 8, 12, 0, 6, 7], [12, 0, 23, 18, 0, 20, 25], [8, 21, 0, 11, 22, 5, 30], [26, 0, 9, 0, 21, 28, 27], [2, 11, 0, 3, 0, 13, 11], [13, 25, 24, 3, 27, 0, 12], [16, 18, 9, 8, 22, 2, 0]]%request(ID, (edge), number of request passenger)
request(0, (lga, jfk), 12).
request(1, (teb, jfk), 8).
request(2, (ryend, jfk), 26).
request(3, (cri, jfk), 2).
request(4, (cimbl, jfk), 13).
request(5, (dandy, jfk), 16).
request(6, (jfk, lga), 6).
request(7, (teb, lga), 21).
request(8, (ryend, lga), 0).
request(9, (cri, lga), 11).
request(10, (cimbl, lga), 25).
request(11, (dandy, lga), 18).
request(12, (jfk, teb), 8).
request(13, (lga, teb), 23).
request(14, (ryend, teb), 9).
request(15, (cri, teb), 0).
request(16, (cimbl, teb), 24).
request(17, (dandy, teb), 9).
request(18, (jfk, ryend), 12).
request(19, (lga, ryend), 18).
request(20, (teb, ryend), 11).
request(21, (cri, ryend), 3).
request(22, (cimbl, ryend), 3).
request(23, (dandy, ryend), 8).
request(24, (jfk, cri), 0).
request(25, (lga, cri), 0).
request(26, (teb, cri), 22).
request(27, (ryend, cri), 21).
request(28, (cimbl, cri), 27).
request(29, (dandy, cri), 22).
request(30, (jfk, cimbl), 6).
request(31, (lga, cimbl), 20).
request(32, (teb, cimbl), 5).
request(33, (ryend, cimbl), 28).
request(34, (cri, cimbl), 13).
request(35, (dandy, cimbl), 2).
request(36, (jfk, dandy), 7).
request(37, (lga, dandy), 25).
request(38, (teb, dandy), 30).
request(39, (ryend, dandy), 27).
request(40, (cri, dandy), 11).
request(41, (cimbl, dandy), 12).
