%[[0, 17, 25, 9, 19, 0, 19], [20, 0, 26, 6, 8, 1, 12], [12, 20, 0, 4, 2, 14, 0], [16, 29, 7, 0, 0, 2, 5], [29, 26, 26, 19, 0, 16, 29], [12, 26, 20, 11, 17, 0, 28], [2, 12, 0, 7, 25, 18, 0]]%request(ID, (edge), number of request passenger)
request(0, (lga, jfk), 20).
request(1, (teb, jfk), 12).
request(2, (ryend, jfk), 16).
request(3, (cri, jfk), 29).
request(4, (cimbl, jfk), 12).
request(5, (dandy, jfk), 2).
request(6, (jfk, lga), 17).
request(7, (teb, lga), 20).
request(8, (ryend, lga), 29).
request(9, (cri, lga), 26).
request(10, (cimbl, lga), 26).
request(11, (dandy, lga), 12).
request(12, (jfk, teb), 25).
request(13, (lga, teb), 26).
request(14, (ryend, teb), 7).
request(15, (cri, teb), 26).
request(16, (cimbl, teb), 20).
request(17, (dandy, teb), 0).
request(18, (jfk, ryend), 9).
request(19, (lga, ryend), 6).
request(20, (teb, ryend), 4).
request(21, (cri, ryend), 19).
request(22, (cimbl, ryend), 11).
request(23, (dandy, ryend), 7).
request(24, (jfk, cri), 19).
request(25, (lga, cri), 8).
request(26, (teb, cri), 2).
request(27, (ryend, cri), 0).
request(28, (cimbl, cri), 17).
request(29, (dandy, cri), 25).
request(30, (jfk, cimbl), 0).
request(31, (lga, cimbl), 1).
request(32, (teb, cimbl), 14).
request(33, (ryend, cimbl), 2).
request(34, (cri, cimbl), 16).
request(35, (dandy, cimbl), 18).
request(36, (jfk, dandy), 19).
request(37, (lga, dandy), 12).
request(38, (teb, dandy), 0).
request(39, (ryend, dandy), 5).
request(40, (cri, dandy), 29).
request(41, (cimbl, dandy), 28).
