%[[0, 10, 1, 0, 30, 25, 29], [29, 0, 25, 9, 28, 2, 0], [16, 20, 0, 5, 7, 8, 23], [20, 13, 11, 0, 17, 8, 17], [2, 18, 13, 26, 0, 15, 12], [11, 24, 25, 12, 28, 0, 7], [12, 5, 3, 16, 15, 22, 0]]%request(ID, (edge), number of request passenger)
request(0, (lga, jfk), 29).
request(1, (teb, jfk), 16).
request(2, (ryend, jfk), 20).
request(3, (cri, jfk), 2).
request(4, (cimbl, jfk), 11).
request(5, (dandy, jfk), 12).
request(6, (jfk, lga), 10).
request(7, (teb, lga), 20).
request(8, (ryend, lga), 13).
request(9, (cri, lga), 18).
request(10, (cimbl, lga), 24).
request(11, (dandy, lga), 5).
request(12, (jfk, teb), 1).
request(13, (lga, teb), 25).
request(14, (ryend, teb), 11).
request(15, (cri, teb), 13).
request(16, (cimbl, teb), 25).
request(17, (dandy, teb), 3).
request(18, (jfk, ryend), 0).
request(19, (lga, ryend), 9).
request(20, (teb, ryend), 5).
request(21, (cri, ryend), 26).
request(22, (cimbl, ryend), 12).
request(23, (dandy, ryend), 16).
request(24, (jfk, cri), 30).
request(25, (lga, cri), 28).
request(26, (teb, cri), 7).
request(27, (ryend, cri), 17).
request(28, (cimbl, cri), 28).
request(29, (dandy, cri), 15).
request(30, (jfk, cimbl), 25).
request(31, (lga, cimbl), 2).
request(32, (teb, cimbl), 8).
request(33, (ryend, cimbl), 8).
request(34, (cri, cimbl), 15).
request(35, (dandy, cimbl), 22).
request(36, (jfk, dandy), 29).
request(37, (lga, dandy), 0).
request(38, (teb, dandy), 23).
request(39, (ryend, dandy), 17).
request(40, (cri, dandy), 12).
request(41, (cimbl, dandy), 7).
