%[[0, 17, 10, 24, 4, 23, 10], [27, 0, 4, 9, 13, 30, 8], [18, 1, 0, 23, 16, 24, 27], [29, 25, 8, 0, 20, 11, 25], [22, 29, 18, 29, 0, 24, 3], [11, 0, 30, 16, 0, 0, 3], [23, 15, 11, 23, 0, 10, 0]]%request(ID, (edge), number of request passenger)
request(0, (lga, jfk), 27).
request(1, (teb, jfk), 18).
request(2, (ryend, jfk), 29).
request(3, (cri, jfk), 22).
request(4, (cimbl, jfk), 11).
request(5, (dandy, jfk), 23).
request(6, (jfk, lga), 17).
request(7, (teb, lga), 1).
request(8, (ryend, lga), 25).
request(9, (cri, lga), 29).
request(10, (cimbl, lga), 0).
request(11, (dandy, lga), 15).
request(12, (jfk, teb), 10).
request(13, (lga, teb), 4).
request(14, (ryend, teb), 8).
request(15, (cri, teb), 18).
request(16, (cimbl, teb), 30).
request(17, (dandy, teb), 11).
request(18, (jfk, ryend), 24).
request(19, (lga, ryend), 9).
request(20, (teb, ryend), 23).
request(21, (cri, ryend), 29).
request(22, (cimbl, ryend), 16).
request(23, (dandy, ryend), 23).
request(24, (jfk, cri), 4).
request(25, (lga, cri), 13).
request(26, (teb, cri), 16).
request(27, (ryend, cri), 20).
request(28, (cimbl, cri), 0).
request(29, (dandy, cri), 0).
request(30, (jfk, cimbl), 23).
request(31, (lga, cimbl), 30).
request(32, (teb, cimbl), 24).
request(33, (ryend, cimbl), 11).
request(34, (cri, cimbl), 24).
request(35, (dandy, cimbl), 10).
request(36, (jfk, dandy), 10).
request(37, (lga, dandy), 8).
request(38, (teb, dandy), 27).
request(39, (ryend, dandy), 25).
request(40, (cri, dandy), 3).
request(41, (cimbl, dandy), 3).
