%[[0, 21, 19, 2, 29, 19, 21], [26, 0, 23, 26, 20, 16, 1], [20, 11, 0, 14, 16, 25, 3], [21, 14, 19, 0, 25, 9, 29], [12, 23, 13, 14, 0, 4, 30], [25, 28, 26, 1, 2, 0, 13], [2, 17, 9, 29, 11, 20, 0]]%request(ID, (edge), number of request passenger)
request(0, (lga, jfk), 26).
request(1, (teb, jfk), 20).
request(2, (ryend, jfk), 21).
request(3, (cri, jfk), 12).
request(4, (cimbl, jfk), 25).
request(5, (dandy, jfk), 2).
request(6, (jfk, lga), 21).
request(7, (teb, lga), 11).
request(8, (ryend, lga), 14).
request(9, (cri, lga), 23).
request(10, (cimbl, lga), 28).
request(11, (dandy, lga), 17).
request(12, (jfk, teb), 19).
request(13, (lga, teb), 23).
request(14, (ryend, teb), 19).
request(15, (cri, teb), 13).
request(16, (cimbl, teb), 26).
request(17, (dandy, teb), 9).
request(18, (jfk, ryend), 2).
request(19, (lga, ryend), 26).
request(20, (teb, ryend), 14).
request(21, (cri, ryend), 14).
request(22, (cimbl, ryend), 1).
request(23, (dandy, ryend), 29).
request(24, (jfk, cri), 29).
request(25, (lga, cri), 20).
request(26, (teb, cri), 16).
request(27, (ryend, cri), 25).
request(28, (cimbl, cri), 2).
request(29, (dandy, cri), 11).
request(30, (jfk, cimbl), 19).
request(31, (lga, cimbl), 16).
request(32, (teb, cimbl), 25).
request(33, (ryend, cimbl), 9).
request(34, (cri, cimbl), 4).
request(35, (dandy, cimbl), 20).
request(36, (jfk, dandy), 21).
request(37, (lga, dandy), 1).
request(38, (teb, dandy), 3).
request(39, (ryend, dandy), 29).
request(40, (cri, dandy), 30).
request(41, (cimbl, dandy), 13).
