%[[0, 20, 13, 13, 24, 23, 3], [2, 0, 11, 22, 14, 11, 1], [19, 21, 0, 5, 18, 11, 10], [8, 22, 10, 0, 19, 23, 9], [15, 30, 24, 18, 0, 12, 7], [29, 19, 2, 16, 15, 0, 4], [13, 16, 7, 0, 12, 11, 0]]%request(ID, (edge), number of request passenger)
request(0, (lga, jfk), 2).
request(1, (teb, jfk), 19).
request(2, (ryend, jfk), 8).
request(3, (cri, jfk), 15).
request(4, (cimbl, jfk), 29).
request(5, (dandy, jfk), 13).
request(6, (jfk, lga), 20).
request(7, (teb, lga), 21).
request(8, (ryend, lga), 22).
request(9, (cri, lga), 30).
request(10, (cimbl, lga), 19).
request(11, (dandy, lga), 16).
request(12, (jfk, teb), 13).
request(13, (lga, teb), 11).
request(14, (ryend, teb), 10).
request(15, (cri, teb), 24).
request(16, (cimbl, teb), 2).
request(17, (dandy, teb), 7).
request(18, (jfk, ryend), 13).
request(19, (lga, ryend), 22).
request(20, (teb, ryend), 5).
request(21, (cri, ryend), 18).
request(22, (cimbl, ryend), 16).
request(23, (dandy, ryend), 0).
request(24, (jfk, cri), 24).
request(25, (lga, cri), 14).
request(26, (teb, cri), 18).
request(27, (ryend, cri), 19).
request(28, (cimbl, cri), 15).
request(29, (dandy, cri), 12).
request(30, (jfk, cimbl), 23).
request(31, (lga, cimbl), 11).
request(32, (teb, cimbl), 11).
request(33, (ryend, cimbl), 23).
request(34, (cri, cimbl), 12).
request(35, (dandy, cimbl), 11).
request(36, (jfk, dandy), 3).
request(37, (lga, dandy), 1).
request(38, (teb, dandy), 10).
request(39, (ryend, dandy), 9).
request(40, (cri, dandy), 7).
request(41, (cimbl, dandy), 4).
