%[[0, 18, 5, 20, 7, 26, 26], [8, 0, 15, 20, 28, 28, 17], [29, 16, 0, 5, 20, 28, 19], [30, 16, 10, 0, 30, 21, 16], [15, 14, 9, 30, 0, 21, 20], [2, 9, 13, 9, 16, 0, 15], [28, 1, 23, 19, 27, 23, 0]]%request(ID, (edge), number of request passenger)
request(0, (lga, jfk), 8).
request(1, (teb, jfk), 29).
request(2, (ryend, jfk), 30).
request(3, (cri, jfk), 15).
request(4, (cimbl, jfk), 2).
request(5, (dandy, jfk), 28).
request(6, (jfk, lga), 18).
request(7, (teb, lga), 16).
request(8, (ryend, lga), 16).
request(9, (cri, lga), 14).
request(10, (cimbl, lga), 9).
request(11, (dandy, lga), 1).
request(12, (jfk, teb), 5).
request(13, (lga, teb), 15).
request(14, (ryend, teb), 10).
request(15, (cri, teb), 9).
request(16, (cimbl, teb), 13).
request(17, (dandy, teb), 23).
request(18, (jfk, ryend), 20).
request(19, (lga, ryend), 20).
request(20, (teb, ryend), 5).
request(21, (cri, ryend), 30).
request(22, (cimbl, ryend), 9).
request(23, (dandy, ryend), 19).
request(24, (jfk, cri), 7).
request(25, (lga, cri), 28).
request(26, (teb, cri), 20).
request(27, (ryend, cri), 30).
request(28, (cimbl, cri), 16).
request(29, (dandy, cri), 27).
request(30, (jfk, cimbl), 26).
request(31, (lga, cimbl), 28).
request(32, (teb, cimbl), 28).
request(33, (ryend, cimbl), 21).
request(34, (cri, cimbl), 21).
request(35, (dandy, cimbl), 23).
request(36, (jfk, dandy), 26).
request(37, (lga, dandy), 17).
request(38, (teb, dandy), 19).
request(39, (ryend, dandy), 16).
request(40, (cri, dandy), 20).
request(41, (cimbl, dandy), 15).
