%[[0, 2, 29, 6, 4, 9, 22], [28, 0, 7, 15, 0, 23, 1], [3, 10, 0, 16, 10, 26, 1], [16, 22, 30, 0, 28, 15, 11], [19, 0, 17, 24, 0, 25, 4], [16, 0, 15, 23, 24, 0, 26], [6, 26, 9, 30, 29, 6, 0]]%request(ID, (edge), number of request passenger)
request(0, (lga, jfk), 28).
request(1, (teb, jfk), 3).
request(2, (ryend, jfk), 16).
request(3, (cri, jfk), 19).
request(4, (cimbl, jfk), 16).
request(5, (dandy, jfk), 6).
request(6, (jfk, lga), 2).
request(7, (teb, lga), 10).
request(8, (ryend, lga), 22).
request(9, (cri, lga), 0).
request(10, (cimbl, lga), 0).
request(11, (dandy, lga), 26).
request(12, (jfk, teb), 29).
request(13, (lga, teb), 7).
request(14, (ryend, teb), 30).
request(15, (cri, teb), 17).
request(16, (cimbl, teb), 15).
request(17, (dandy, teb), 9).
request(18, (jfk, ryend), 6).
request(19, (lga, ryend), 15).
request(20, (teb, ryend), 16).
request(21, (cri, ryend), 24).
request(22, (cimbl, ryend), 23).
request(23, (dandy, ryend), 30).
request(24, (jfk, cri), 4).
request(25, (lga, cri), 0).
request(26, (teb, cri), 10).
request(27, (ryend, cri), 28).
request(28, (cimbl, cri), 24).
request(29, (dandy, cri), 29).
request(30, (jfk, cimbl), 9).
request(31, (lga, cimbl), 23).
request(32, (teb, cimbl), 26).
request(33, (ryend, cimbl), 15).
request(34, (cri, cimbl), 25).
request(35, (dandy, cimbl), 6).
request(36, (jfk, dandy), 22).
request(37, (lga, dandy), 1).
request(38, (teb, dandy), 1).
request(39, (ryend, dandy), 11).
request(40, (cri, dandy), 4).
request(41, (cimbl, dandy), 26).
