%[[0, 7, 18, 17, 4, 11, 29], [19, 0, 15, 20, 18, 2, 19], [0, 29, 0, 26, 15, 8, 17], [7, 6, 22, 0, 15, 17, 26], [17, 15, 12, 20, 0, 27, 4], [7, 20, 4, 27, 29, 0, 16], [12, 23, 0, 21, 24, 2, 0]]%request(ID, (edge), number of request passenger)
request(0, (lga, jfk), 19).
request(1, (teb, jfk), 0).
request(2, (ryend, jfk), 7).
request(3, (cri, jfk), 17).
request(4, (cimbl, jfk), 7).
request(5, (dandy, jfk), 12).
request(6, (jfk, lga), 7).
request(7, (teb, lga), 29).
request(8, (ryend, lga), 6).
request(9, (cri, lga), 15).
request(10, (cimbl, lga), 20).
request(11, (dandy, lga), 23).
request(12, (jfk, teb), 18).
request(13, (lga, teb), 15).
request(14, (ryend, teb), 22).
request(15, (cri, teb), 12).
request(16, (cimbl, teb), 4).
request(17, (dandy, teb), 0).
request(18, (jfk, ryend), 17).
request(19, (lga, ryend), 20).
request(20, (teb, ryend), 26).
request(21, (cri, ryend), 20).
request(22, (cimbl, ryend), 27).
request(23, (dandy, ryend), 21).
request(24, (jfk, cri), 4).
request(25, (lga, cri), 18).
request(26, (teb, cri), 15).
request(27, (ryend, cri), 15).
request(28, (cimbl, cri), 29).
request(29, (dandy, cri), 24).
request(30, (jfk, cimbl), 11).
request(31, (lga, cimbl), 2).
request(32, (teb, cimbl), 8).
request(33, (ryend, cimbl), 17).
request(34, (cri, cimbl), 27).
request(35, (dandy, cimbl), 2).
request(36, (jfk, dandy), 29).
request(37, (lga, dandy), 19).
request(38, (teb, dandy), 17).
request(39, (ryend, dandy), 26).
request(40, (cri, dandy), 4).
request(41, (cimbl, dandy), 16).
