%[[0, 12, 10, 7, 5, 28, 29], [12, 0, 18, 28, 22, 9, 17], [8, 12, 0, 27, 23, 24, 18], [0, 24, 7, 0, 21, 26, 0], [14, 30, 4, 4, 0, 23, 10], [5, 8, 20, 22, 19, 0, 18], [1, 3, 25, 18, 1, 13, 0]]%request(ID, (edge), number of request passenger)
request(0, (lga, jfk), 12).
request(1, (teb, jfk), 8).
request(2, (ryend, jfk), 0).
request(3, (cri, jfk), 14).
request(4, (cimbl, jfk), 5).
request(5, (dandy, jfk), 1).
request(6, (jfk, lga), 12).
request(7, (teb, lga), 12).
request(8, (ryend, lga), 24).
request(9, (cri, lga), 30).
request(10, (cimbl, lga), 8).
request(11, (dandy, lga), 3).
request(12, (jfk, teb), 10).
request(13, (lga, teb), 18).
request(14, (ryend, teb), 7).
request(15, (cri, teb), 4).
request(16, (cimbl, teb), 20).
request(17, (dandy, teb), 25).
request(18, (jfk, ryend), 7).
request(19, (lga, ryend), 28).
request(20, (teb, ryend), 27).
request(21, (cri, ryend), 4).
request(22, (cimbl, ryend), 22).
request(23, (dandy, ryend), 18).
request(24, (jfk, cri), 5).
request(25, (lga, cri), 22).
request(26, (teb, cri), 23).
request(27, (ryend, cri), 21).
request(28, (cimbl, cri), 19).
request(29, (dandy, cri), 1).
request(30, (jfk, cimbl), 28).
request(31, (lga, cimbl), 9).
request(32, (teb, cimbl), 24).
request(33, (ryend, cimbl), 26).
request(34, (cri, cimbl), 23).
request(35, (dandy, cimbl), 13).
request(36, (jfk, dandy), 29).
request(37, (lga, dandy), 17).
request(38, (teb, dandy), 18).
request(39, (ryend, dandy), 0).
request(40, (cri, dandy), 10).
request(41, (cimbl, dandy), 18).
