%[[0, 1, 9, 22, 24, 4, 30], [14, 0, 11, 21, 22, 25, 3], [14, 19, 0, 15, 19, 0, 16], [13, 18, 11, 0, 19, 27, 30], [17, 28, 24, 30, 0, 13, 12], [5, 1, 27, 3, 26, 0, 3], [12, 4, 3, 5, 16, 26, 0]]%request(ID, (edge), number of request passenger)
request(0, (lga, jfk), 14).
request(1, (teb, jfk), 14).
request(2, (ryend, jfk), 13).
request(3, (cri, jfk), 17).
request(4, (cimbl, jfk), 5).
request(5, (dandy, jfk), 12).
request(6, (jfk, lga), 1).
request(7, (teb, lga), 19).
request(8, (ryend, lga), 18).
request(9, (cri, lga), 28).
request(10, (cimbl, lga), 1).
request(11, (dandy, lga), 4).
request(12, (jfk, teb), 9).
request(13, (lga, teb), 11).
request(14, (ryend, teb), 11).
request(15, (cri, teb), 24).
request(16, (cimbl, teb), 27).
request(17, (dandy, teb), 3).
request(18, (jfk, ryend), 22).
request(19, (lga, ryend), 21).
request(20, (teb, ryend), 15).
request(21, (cri, ryend), 30).
request(22, (cimbl, ryend), 3).
request(23, (dandy, ryend), 5).
request(24, (jfk, cri), 24).
request(25, (lga, cri), 22).
request(26, (teb, cri), 19).
request(27, (ryend, cri), 19).
request(28, (cimbl, cri), 26).
request(29, (dandy, cri), 16).
request(30, (jfk, cimbl), 4).
request(31, (lga, cimbl), 25).
request(32, (teb, cimbl), 0).
request(33, (ryend, cimbl), 27).
request(34, (cri, cimbl), 13).
request(35, (dandy, cimbl), 26).
request(36, (jfk, dandy), 30).
request(37, (lga, dandy), 3).
request(38, (teb, dandy), 16).
request(39, (ryend, dandy), 30).
request(40, (cri, dandy), 12).
request(41, (cimbl, dandy), 3).
