%[[0, 13, 16, 17, 22, 27, 3], [5, 0, 12, 7, 9, 0, 7], [3, 18, 0, 0, 3, 5, 24], [16, 22, 9, 0, 22, 20, 12], [18, 12, 24, 22, 0, 21, 10], [11, 2, 10, 26, 9, 0, 19], [5, 3, 16, 2, 18, 3, 0]]%request(ID, (edge), number of request passenger)
request(0, (lga, jfk), 5).
request(1, (teb, jfk), 3).
request(2, (ryend, jfk), 16).
request(3, (cri, jfk), 18).
request(4, (cimbl, jfk), 11).
request(5, (dandy, jfk), 5).
request(6, (jfk, lga), 13).
request(7, (teb, lga), 18).
request(8, (ryend, lga), 22).
request(9, (cri, lga), 12).
request(10, (cimbl, lga), 2).
request(11, (dandy, lga), 3).
request(12, (jfk, teb), 16).
request(13, (lga, teb), 12).
request(14, (ryend, teb), 9).
request(15, (cri, teb), 24).
request(16, (cimbl, teb), 10).
request(17, (dandy, teb), 16).
request(18, (jfk, ryend), 17).
request(19, (lga, ryend), 7).
request(20, (teb, ryend), 0).
request(21, (cri, ryend), 22).
request(22, (cimbl, ryend), 26).
request(23, (dandy, ryend), 2).
request(24, (jfk, cri), 22).
request(25, (lga, cri), 9).
request(26, (teb, cri), 3).
request(27, (ryend, cri), 22).
request(28, (cimbl, cri), 9).
request(29, (dandy, cri), 18).
request(30, (jfk, cimbl), 27).
request(31, (lga, cimbl), 0).
request(32, (teb, cimbl), 5).
request(33, (ryend, cimbl), 20).
request(34, (cri, cimbl), 21).
request(35, (dandy, cimbl), 3).
request(36, (jfk, dandy), 3).
request(37, (lga, dandy), 7).
request(38, (teb, dandy), 24).
request(39, (ryend, dandy), 12).
request(40, (cri, dandy), 10).
request(41, (cimbl, dandy), 19).
