%[[0, 17, 10, 4, 17, 22, 17], [9, 0, 25, 30, 16, 6, 22], [24, 13, 0, 5, 4, 30, 25], [27, 21, 3, 0, 15, 20, 7], [6, 24, 16, 17, 0, 27, 16], [4, 15, 6, 0, 2, 0, 13], [2, 4, 15, 21, 5, 30, 0]]%request(ID, (edge), number of request passenger)
request(0, (lga, jfk), 9).
request(1, (teb, jfk), 24).
request(2, (ryend, jfk), 27).
request(3, (cri, jfk), 6).
request(4, (cimbl, jfk), 4).
request(5, (dandy, jfk), 2).
request(6, (jfk, lga), 17).
request(7, (teb, lga), 13).
request(8, (ryend, lga), 21).
request(9, (cri, lga), 24).
request(10, (cimbl, lga), 15).
request(11, (dandy, lga), 4).
request(12, (jfk, teb), 10).
request(13, (lga, teb), 25).
request(14, (ryend, teb), 3).
request(15, (cri, teb), 16).
request(16, (cimbl, teb), 6).
request(17, (dandy, teb), 15).
request(18, (jfk, ryend), 4).
request(19, (lga, ryend), 30).
request(20, (teb, ryend), 5).
request(21, (cri, ryend), 17).
request(22, (cimbl, ryend), 0).
request(23, (dandy, ryend), 21).
request(24, (jfk, cri), 17).
request(25, (lga, cri), 16).
request(26, (teb, cri), 4).
request(27, (ryend, cri), 15).
request(28, (cimbl, cri), 2).
request(29, (dandy, cri), 5).
request(30, (jfk, cimbl), 22).
request(31, (lga, cimbl), 6).
request(32, (teb, cimbl), 30).
request(33, (ryend, cimbl), 20).
request(34, (cri, cimbl), 27).
request(35, (dandy, cimbl), 30).
request(36, (jfk, dandy), 17).
request(37, (lga, dandy), 22).
request(38, (teb, dandy), 25).
request(39, (ryend, dandy), 7).
request(40, (cri, dandy), 16).
request(41, (cimbl, dandy), 13).
