%[[0, 7, 9, 3, 23, 12, 15], [4, 0, 2, 2, 0, 12, 17], [29, 9, 0, 25, 24, 1, 7], [16, 17, 11, 0, 8, 24, 5], [26, 3, 8, 6, 0, 30, 29], [0, 26, 20, 25, 8, 0, 25], [8, 6, 5, 9, 9, 20, 0]]%request(ID, (edge), number of request passenger)
request(0, (lga, jfk), 4).
request(1, (teb, jfk), 29).
request(2, (ryend, jfk), 16).
request(3, (cri, jfk), 26).
request(4, (cimbl, jfk), 0).
request(5, (dandy, jfk), 8).
request(6, (jfk, lga), 7).
request(7, (teb, lga), 9).
request(8, (ryend, lga), 17).
request(9, (cri, lga), 3).
request(10, (cimbl, lga), 26).
request(11, (dandy, lga), 6).
request(12, (jfk, teb), 9).
request(13, (lga, teb), 2).
request(14, (ryend, teb), 11).
request(15, (cri, teb), 8).
request(16, (cimbl, teb), 20).
request(17, (dandy, teb), 5).
request(18, (jfk, ryend), 3).
request(19, (lga, ryend), 2).
request(20, (teb, ryend), 25).
request(21, (cri, ryend), 6).
request(22, (cimbl, ryend), 25).
request(23, (dandy, ryend), 9).
request(24, (jfk, cri), 23).
request(25, (lga, cri), 0).
request(26, (teb, cri), 24).
request(27, (ryend, cri), 8).
request(28, (cimbl, cri), 8).
request(29, (dandy, cri), 9).
request(30, (jfk, cimbl), 12).
request(31, (lga, cimbl), 12).
request(32, (teb, cimbl), 1).
request(33, (ryend, cimbl), 24).
request(34, (cri, cimbl), 30).
request(35, (dandy, cimbl), 20).
request(36, (jfk, dandy), 15).
request(37, (lga, dandy), 17).
request(38, (teb, dandy), 7).
request(39, (ryend, dandy), 5).
request(40, (cri, dandy), 29).
request(41, (cimbl, dandy), 25).
