%[[0, 14, 18, 28, 16, 1, 7], [9, 0, 21, 30, 20, 21, 6], [4, 24, 0, 11, 8, 28, 23], [14, 26, 0, 0, 16, 28, 23], [4, 1, 20, 6, 0, 19, 22], [14, 27, 30, 1, 5, 0, 25], [19, 10, 3, 8, 30, 10, 0]]%request(ID, (edge), number of request passenger)
request(0, (lga, jfk), 9).
request(1, (teb, jfk), 4).
request(2, (ryend, jfk), 14).
request(3, (cri, jfk), 4).
request(4, (cimbl, jfk), 14).
request(5, (dandy, jfk), 19).
request(6, (jfk, lga), 14).
request(7, (teb, lga), 24).
request(8, (ryend, lga), 26).
request(9, (cri, lga), 1).
request(10, (cimbl, lga), 27).
request(11, (dandy, lga), 10).
request(12, (jfk, teb), 18).
request(13, (lga, teb), 21).
request(14, (ryend, teb), 0).
request(15, (cri, teb), 20).
request(16, (cimbl, teb), 30).
request(17, (dandy, teb), 3).
request(18, (jfk, ryend), 28).
request(19, (lga, ryend), 30).
request(20, (teb, ryend), 11).
request(21, (cri, ryend), 6).
request(22, (cimbl, ryend), 1).
request(23, (dandy, ryend), 8).
request(24, (jfk, cri), 16).
request(25, (lga, cri), 20).
request(26, (teb, cri), 8).
request(27, (ryend, cri), 16).
request(28, (cimbl, cri), 5).
request(29, (dandy, cri), 30).
request(30, (jfk, cimbl), 1).
request(31, (lga, cimbl), 21).
request(32, (teb, cimbl), 28).
request(33, (ryend, cimbl), 28).
request(34, (cri, cimbl), 19).
request(35, (dandy, cimbl), 10).
request(36, (jfk, dandy), 7).
request(37, (lga, dandy), 6).
request(38, (teb, dandy), 23).
request(39, (ryend, dandy), 23).
request(40, (cri, dandy), 22).
request(41, (cimbl, dandy), 25).
