%[[0, 8, 13, 15, 8, 2, 9], [10, 0, 0, 2, 15, 0, 3], [9, 25, 0, 3, 30, 9, 27], [23, 20, 1, 0, 28, 19, 2], [4, 8, 25, 28, 0, 23, 4], [6, 27, 24, 22, 13, 0, 2], [19, 13, 4, 22, 1, 29, 0]]%request(ID, (edge), number of request passenger)
request(0, (lga, jfk), 10).
request(1, (teb, jfk), 9).
request(2, (ryend, jfk), 23).
request(3, (cri, jfk), 4).
request(4, (cimbl, jfk), 6).
request(5, (dandy, jfk), 19).
request(6, (jfk, lga), 8).
request(7, (teb, lga), 25).
request(8, (ryend, lga), 20).
request(9, (cri, lga), 8).
request(10, (cimbl, lga), 27).
request(11, (dandy, lga), 13).
request(12, (jfk, teb), 13).
request(13, (lga, teb), 0).
request(14, (ryend, teb), 1).
request(15, (cri, teb), 25).
request(16, (cimbl, teb), 24).
request(17, (dandy, teb), 4).
request(18, (jfk, ryend), 15).
request(19, (lga, ryend), 2).
request(20, (teb, ryend), 3).
request(21, (cri, ryend), 28).
request(22, (cimbl, ryend), 22).
request(23, (dandy, ryend), 22).
request(24, (jfk, cri), 8).
request(25, (lga, cri), 15).
request(26, (teb, cri), 30).
request(27, (ryend, cri), 28).
request(28, (cimbl, cri), 13).
request(29, (dandy, cri), 1).
request(30, (jfk, cimbl), 2).
request(31, (lga, cimbl), 0).
request(32, (teb, cimbl), 9).
request(33, (ryend, cimbl), 19).
request(34, (cri, cimbl), 23).
request(35, (dandy, cimbl), 29).
request(36, (jfk, dandy), 9).
request(37, (lga, dandy), 3).
request(38, (teb, dandy), 27).
request(39, (ryend, dandy), 2).
request(40, (cri, dandy), 4).
request(41, (cimbl, dandy), 2).
