%[[0, 28, 2, 12, 1, 18, 18], [27, 0, 28, 7, 20, 16, 4], [18, 17, 0, 30, 25, 1, 0], [2, 25, 10, 0, 20, 26, 1], [26, 0, 4, 17, 0, 29, 9], [16, 10, 30, 22, 29, 0, 24], [2, 12, 22, 15, 11, 4, 0]]%request(ID, (edge), number of request passenger)
request(0, (lga, jfk), 27).
request(1, (teb, jfk), 18).
request(2, (ryend, jfk), 2).
request(3, (cri, jfk), 26).
request(4, (cimbl, jfk), 16).
request(5, (dandy, jfk), 2).
request(6, (jfk, lga), 28).
request(7, (teb, lga), 17).
request(8, (ryend, lga), 25).
request(9, (cri, lga), 0).
request(10, (cimbl, lga), 10).
request(11, (dandy, lga), 12).
request(12, (jfk, teb), 2).
request(13, (lga, teb), 28).
request(14, (ryend, teb), 10).
request(15, (cri, teb), 4).
request(16, (cimbl, teb), 30).
request(17, (dandy, teb), 22).
request(18, (jfk, ryend), 12).
request(19, (lga, ryend), 7).
request(20, (teb, ryend), 30).
request(21, (cri, ryend), 17).
request(22, (cimbl, ryend), 22).
request(23, (dandy, ryend), 15).
request(24, (jfk, cri), 1).
request(25, (lga, cri), 20).
request(26, (teb, cri), 25).
request(27, (ryend, cri), 20).
request(28, (cimbl, cri), 29).
request(29, (dandy, cri), 11).
request(30, (jfk, cimbl), 18).
request(31, (lga, cimbl), 16).
request(32, (teb, cimbl), 1).
request(33, (ryend, cimbl), 26).
request(34, (cri, cimbl), 29).
request(35, (dandy, cimbl), 4).
request(36, (jfk, dandy), 18).
request(37, (lga, dandy), 4).
request(38, (teb, dandy), 0).
request(39, (ryend, dandy), 1).
request(40, (cri, dandy), 9).
request(41, (cimbl, dandy), 24).
