%[[0, 2, 11, 13, 29, 3, 10], [24, 0, 17, 16, 25, 1, 21], [1, 24, 0, 23, 8, 4, 14], [23, 1, 20, 0, 17, 16, 7], [27, 28, 19, 9, 0, 18, 11], [12, 0, 7, 23, 4, 0, 3], [13, 23, 12, 10, 24, 11, 0]]%request(ID, (edge), number of request passenger)
request(0, (lga, jfk), 24).
request(1, (teb, jfk), 1).
request(2, (ryend, jfk), 23).
request(3, (cri, jfk), 27).
request(4, (cimbl, jfk), 12).
request(5, (dandy, jfk), 13).
request(6, (jfk, lga), 2).
request(7, (teb, lga), 24).
request(8, (ryend, lga), 1).
request(9, (cri, lga), 28).
request(10, (cimbl, lga), 0).
request(11, (dandy, lga), 23).
request(12, (jfk, teb), 11).
request(13, (lga, teb), 17).
request(14, (ryend, teb), 20).
request(15, (cri, teb), 19).
request(16, (cimbl, teb), 7).
request(17, (dandy, teb), 12).
request(18, (jfk, ryend), 13).
request(19, (lga, ryend), 16).
request(20, (teb, ryend), 23).
request(21, (cri, ryend), 9).
request(22, (cimbl, ryend), 23).
request(23, (dandy, ryend), 10).
request(24, (jfk, cri), 29).
request(25, (lga, cri), 25).
request(26, (teb, cri), 8).
request(27, (ryend, cri), 17).
request(28, (cimbl, cri), 4).
request(29, (dandy, cri), 24).
request(30, (jfk, cimbl), 3).
request(31, (lga, cimbl), 1).
request(32, (teb, cimbl), 4).
request(33, (ryend, cimbl), 16).
request(34, (cri, cimbl), 18).
request(35, (dandy, cimbl), 11).
request(36, (jfk, dandy), 10).
request(37, (lga, dandy), 21).
request(38, (teb, dandy), 14).
request(39, (ryend, dandy), 7).
request(40, (cri, dandy), 11).
request(41, (cimbl, dandy), 3).
