%[[0, 20, 3, 0, 23, 8, 7], [7, 0, 4, 23, 3, 21, 23], [28, 17, 0, 2, 18, 13, 1], [0, 2, 6, 0, 7, 16, 19], [0, 17, 6, 22, 0, 20, 22], [17, 13, 7, 14, 18, 0, 8], [25, 27, 0, 24, 25, 5, 0]]%request(ID, (edge), number of request passenger)
request(0, (lga, jfk), 7).
request(1, (teb, jfk), 28).
request(2, (ryend, jfk), 0).
request(3, (cri, jfk), 0).
request(4, (cimbl, jfk), 17).
request(5, (dandy, jfk), 25).
request(6, (jfk, lga), 20).
request(7, (teb, lga), 17).
request(8, (ryend, lga), 2).
request(9, (cri, lga), 17).
request(10, (cimbl, lga), 13).
request(11, (dandy, lga), 27).
request(12, (jfk, teb), 3).
request(13, (lga, teb), 4).
request(14, (ryend, teb), 6).
request(15, (cri, teb), 6).
request(16, (cimbl, teb), 7).
request(17, (dandy, teb), 0).
request(18, (jfk, ryend), 0).
request(19, (lga, ryend), 23).
request(20, (teb, ryend), 2).
request(21, (cri, ryend), 22).
request(22, (cimbl, ryend), 14).
request(23, (dandy, ryend), 24).
request(24, (jfk, cri), 23).
request(25, (lga, cri), 3).
request(26, (teb, cri), 18).
request(27, (ryend, cri), 7).
request(28, (cimbl, cri), 18).
request(29, (dandy, cri), 25).
request(30, (jfk, cimbl), 8).
request(31, (lga, cimbl), 21).
request(32, (teb, cimbl), 13).
request(33, (ryend, cimbl), 16).
request(34, (cri, cimbl), 20).
request(35, (dandy, cimbl), 5).
request(36, (jfk, dandy), 7).
request(37, (lga, dandy), 23).
request(38, (teb, dandy), 1).
request(39, (ryend, dandy), 19).
request(40, (cri, dandy), 22).
request(41, (cimbl, dandy), 8).
