%[[0, 11, 2, 13, 17, 14, 18], [10, 0, 8, 16, 12, 12, 19], [1, 25, 0, 13, 21, 0, 30], [3, 0, 8, 0, 30, 30, 25], [15, 23, 17, 0, 0, 29, 26], [28, 10, 18, 13, 7, 0, 7], [16, 16, 11, 14, 30, 7, 0]]%request(ID, (edge), number of request passenger)
request(0, (lga, jfk), 10).
request(1, (teb, jfk), 1).
request(2, (ryend, jfk), 3).
request(3, (cri, jfk), 15).
request(4, (cimbl, jfk), 28).
request(5, (dandy, jfk), 16).
request(6, (jfk, lga), 11).
request(7, (teb, lga), 25).
request(8, (ryend, lga), 0).
request(9, (cri, lga), 23).
request(10, (cimbl, lga), 10).
request(11, (dandy, lga), 16).
request(12, (jfk, teb), 2).
request(13, (lga, teb), 8).
request(14, (ryend, teb), 8).
request(15, (cri, teb), 17).
request(16, (cimbl, teb), 18).
request(17, (dandy, teb), 11).
request(18, (jfk, ryend), 13).
request(19, (lga, ryend), 16).
request(20, (teb, ryend), 13).
request(21, (cri, ryend), 0).
request(22, (cimbl, ryend), 13).
request(23, (dandy, ryend), 14).
request(24, (jfk, cri), 17).
request(25, (lga, cri), 12).
request(26, (teb, cri), 21).
request(27, (ryend, cri), 30).
request(28, (cimbl, cri), 7).
request(29, (dandy, cri), 30).
request(30, (jfk, cimbl), 14).
request(31, (lga, cimbl), 12).
request(32, (teb, cimbl), 0).
request(33, (ryend, cimbl), 30).
request(34, (cri, cimbl), 29).
request(35, (dandy, cimbl), 7).
request(36, (jfk, dandy), 18).
request(37, (lga, dandy), 19).
request(38, (teb, dandy), 30).
request(39, (ryend, dandy), 25).
request(40, (cri, dandy), 26).
request(41, (cimbl, dandy), 7).
