%[[0, 1, 11, 18, 19, 0, 7], [16, 0, 10, 15, 9, 13, 20], [26, 28, 0, 12, 0, 27, 23], [5, 16, 29, 0, 19, 11, 12], [12, 3, 20, 28, 0, 23, 18], [21, 15, 17, 8, 26, 0, 20], [19, 4, 18, 4, 4, 12, 0]]%request(ID, (edge), number of request passenger)
request(0, (lga, jfk), 16).
request(1, (teb, jfk), 26).
request(2, (ryend, jfk), 5).
request(3, (cri, jfk), 12).
request(4, (cimbl, jfk), 21).
request(5, (dandy, jfk), 19).
request(6, (jfk, lga), 1).
request(7, (teb, lga), 28).
request(8, (ryend, lga), 16).
request(9, (cri, lga), 3).
request(10, (cimbl, lga), 15).
request(11, (dandy, lga), 4).
request(12, (jfk, teb), 11).
request(13, (lga, teb), 10).
request(14, (ryend, teb), 29).
request(15, (cri, teb), 20).
request(16, (cimbl, teb), 17).
request(17, (dandy, teb), 18).
request(18, (jfk, ryend), 18).
request(19, (lga, ryend), 15).
request(20, (teb, ryend), 12).
request(21, (cri, ryend), 28).
request(22, (cimbl, ryend), 8).
request(23, (dandy, ryend), 4).
request(24, (jfk, cri), 19).
request(25, (lga, cri), 9).
request(26, (teb, cri), 0).
request(27, (ryend, cri), 19).
request(28, (cimbl, cri), 26).
request(29, (dandy, cri), 4).
request(30, (jfk, cimbl), 0).
request(31, (lga, cimbl), 13).
request(32, (teb, cimbl), 27).
request(33, (ryend, cimbl), 11).
request(34, (cri, cimbl), 23).
request(35, (dandy, cimbl), 12).
request(36, (jfk, dandy), 7).
request(37, (lga, dandy), 20).
request(38, (teb, dandy), 23).
request(39, (ryend, dandy), 12).
request(40, (cri, dandy), 18).
request(41, (cimbl, dandy), 20).
