%[[0, 8, 1, 28, 23, 16, 15], [27, 0, 30, 11, 13, 1, 29], [4, 5, 0, 25, 13, 26, 5], [30, 11, 14, 0, 20, 0, 1], [17, 12, 14, 0, 0, 7, 2], [5, 5, 15, 7, 20, 0, 8], [15, 24, 15, 13, 3, 27, 0]]%request(ID, (edge), number of request passenger)
request(0, (lga, jfk), 27).
request(1, (teb, jfk), 4).
request(2, (ryend, jfk), 30).
request(3, (cri, jfk), 17).
request(4, (cimbl, jfk), 5).
request(5, (dandy, jfk), 15).
request(6, (jfk, lga), 8).
request(7, (teb, lga), 5).
request(8, (ryend, lga), 11).
request(9, (cri, lga), 12).
request(10, (cimbl, lga), 5).
request(11, (dandy, lga), 24).
request(12, (jfk, teb), 1).
request(13, (lga, teb), 30).
request(14, (ryend, teb), 14).
request(15, (cri, teb), 14).
request(16, (cimbl, teb), 15).
request(17, (dandy, teb), 15).
request(18, (jfk, ryend), 28).
request(19, (lga, ryend), 11).
request(20, (teb, ryend), 25).
request(21, (cri, ryend), 0).
request(22, (cimbl, ryend), 7).
request(23, (dandy, ryend), 13).
request(24, (jfk, cri), 23).
request(25, (lga, cri), 13).
request(26, (teb, cri), 13).
request(27, (ryend, cri), 20).
request(28, (cimbl, cri), 20).
request(29, (dandy, cri), 3).
request(30, (jfk, cimbl), 16).
request(31, (lga, cimbl), 1).
request(32, (teb, cimbl), 26).
request(33, (ryend, cimbl), 0).
request(34, (cri, cimbl), 7).
request(35, (dandy, cimbl), 27).
request(36, (jfk, dandy), 15).
request(37, (lga, dandy), 29).
request(38, (teb, dandy), 5).
request(39, (ryend, dandy), 1).
request(40, (cri, dandy), 2).
request(41, (cimbl, dandy), 8).
