%[[0, 18, 6, 6, 23, 20, 30], [6, 0, 1, 6, 14, 12, 11], [30, 9, 0, 25, 28, 8, 30], [14, 25, 19, 0, 13, 9, 27], [18, 3, 0, 15, 0, 6, 15], [24, 2, 14, 17, 21, 0, 12], [21, 11, 1, 3, 25, 21, 0]]%request(ID, (edge), number of request passenger)
request(0, (lga, jfk), 6).
request(1, (teb, jfk), 30).
request(2, (ryend, jfk), 14).
request(3, (cri, jfk), 18).
request(4, (cimbl, jfk), 24).
request(5, (dandy, jfk), 21).
request(6, (jfk, lga), 18).
request(7, (teb, lga), 9).
request(8, (ryend, lga), 25).
request(9, (cri, lga), 3).
request(10, (cimbl, lga), 2).
request(11, (dandy, lga), 11).
request(12, (jfk, teb), 6).
request(13, (lga, teb), 1).
request(14, (ryend, teb), 19).
request(15, (cri, teb), 0).
request(16, (cimbl, teb), 14).
request(17, (dandy, teb), 1).
request(18, (jfk, ryend), 6).
request(19, (lga, ryend), 6).
request(20, (teb, ryend), 25).
request(21, (cri, ryend), 15).
request(22, (cimbl, ryend), 17).
request(23, (dandy, ryend), 3).
request(24, (jfk, cri), 23).
request(25, (lga, cri), 14).
request(26, (teb, cri), 28).
request(27, (ryend, cri), 13).
request(28, (cimbl, cri), 21).
request(29, (dandy, cri), 25).
request(30, (jfk, cimbl), 20).
request(31, (lga, cimbl), 12).
request(32, (teb, cimbl), 8).
request(33, (ryend, cimbl), 9).
request(34, (cri, cimbl), 6).
request(35, (dandy, cimbl), 21).
request(36, (jfk, dandy), 30).
request(37, (lga, dandy), 11).
request(38, (teb, dandy), 30).
request(39, (ryend, dandy), 27).
request(40, (cri, dandy), 15).
request(41, (cimbl, dandy), 12).
