%[[0, 19, 27, 28, 6, 14, 16], [22, 0, 15, 29, 22, 16, 11], [23, 14, 0, 23, 0, 27, 29], [1, 29, 5, 0, 11, 23, 4], [8, 28, 23, 1, 0, 5, 1], [11, 7, 14, 6, 7, 0, 4], [4, 11, 16, 24, 20, 27, 0]]%request(ID, (edge), number of request passenger)
request(0, (lga, jfk), 22).
request(1, (teb, jfk), 23).
request(2, (ryend, jfk), 1).
request(3, (cri, jfk), 8).
request(4, (cimbl, jfk), 11).
request(5, (dandy, jfk), 4).
request(6, (jfk, lga), 19).
request(7, (teb, lga), 14).
request(8, (ryend, lga), 29).
request(9, (cri, lga), 28).
request(10, (cimbl, lga), 7).
request(11, (dandy, lga), 11).
request(12, (jfk, teb), 27).
request(13, (lga, teb), 15).
request(14, (ryend, teb), 5).
request(15, (cri, teb), 23).
request(16, (cimbl, teb), 14).
request(17, (dandy, teb), 16).
request(18, (jfk, ryend), 28).
request(19, (lga, ryend), 29).
request(20, (teb, ryend), 23).
request(21, (cri, ryend), 1).
request(22, (cimbl, ryend), 6).
request(23, (dandy, ryend), 24).
request(24, (jfk, cri), 6).
request(25, (lga, cri), 22).
request(26, (teb, cri), 0).
request(27, (ryend, cri), 11).
request(28, (cimbl, cri), 7).
request(29, (dandy, cri), 20).
request(30, (jfk, cimbl), 14).
request(31, (lga, cimbl), 16).
request(32, (teb, cimbl), 27).
request(33, (ryend, cimbl), 23).
request(34, (cri, cimbl), 5).
request(35, (dandy, cimbl), 27).
request(36, (jfk, dandy), 16).
request(37, (lga, dandy), 11).
request(38, (teb, dandy), 29).
request(39, (ryend, dandy), 4).
request(40, (cri, dandy), 1).
request(41, (cimbl, dandy), 4).
