%[[0, 29, 4, 14, 17, 9, 15], [28, 0, 30, 15, 12, 7, 14], [10, 18, 0, 23, 12, 28, 29], [28, 6, 23, 0, 6, 1, 15], [25, 17, 14, 19, 0, 2, 17], [10, 16, 9, 29, 13, 0, 8], [17, 4, 3, 20, 8, 30, 0]]%request(ID, (edge), number of request passenger)
request(0, (lga, jfk), 28).
request(1, (teb, jfk), 10).
request(2, (ryend, jfk), 28).
request(3, (cri, jfk), 25).
request(4, (cimbl, jfk), 10).
request(5, (dandy, jfk), 17).
request(6, (jfk, lga), 29).
request(7, (teb, lga), 18).
request(8, (ryend, lga), 6).
request(9, (cri, lga), 17).
request(10, (cimbl, lga), 16).
request(11, (dandy, lga), 4).
request(12, (jfk, teb), 4).
request(13, (lga, teb), 30).
request(14, (ryend, teb), 23).
request(15, (cri, teb), 14).
request(16, (cimbl, teb), 9).
request(17, (dandy, teb), 3).
request(18, (jfk, ryend), 14).
request(19, (lga, ryend), 15).
request(20, (teb, ryend), 23).
request(21, (cri, ryend), 19).
request(22, (cimbl, ryend), 29).
request(23, (dandy, ryend), 20).
request(24, (jfk, cri), 17).
request(25, (lga, cri), 12).
request(26, (teb, cri), 12).
request(27, (ryend, cri), 6).
request(28, (cimbl, cri), 13).
request(29, (dandy, cri), 8).
request(30, (jfk, cimbl), 9).
request(31, (lga, cimbl), 7).
request(32, (teb, cimbl), 28).
request(33, (ryend, cimbl), 1).
request(34, (cri, cimbl), 2).
request(35, (dandy, cimbl), 30).
request(36, (jfk, dandy), 15).
request(37, (lga, dandy), 14).
request(38, (teb, dandy), 29).
request(39, (ryend, dandy), 15).
request(40, (cri, dandy), 17).
request(41, (cimbl, dandy), 8).
