%[[0, 19, 8, 23, 11, 25, 22], [30, 0, 26, 23, 20, 29, 16], [0, 26, 0, 14, 24, 30, 7], [20, 1, 28, 0, 5, 3, 11], [15, 27, 7, 12, 0, 17, 3], [18, 7, 0, 23, 6, 0, 13], [8, 5, 29, 27, 24, 12, 0]]%request(ID, (edge), number of request passenger)
request(0, (lga, jfk), 30).
request(1, (teb, jfk), 0).
request(2, (ryend, jfk), 20).
request(3, (cri, jfk), 15).
request(4, (cimbl, jfk), 18).
request(5, (dandy, jfk), 8).
request(6, (jfk, lga), 19).
request(7, (teb, lga), 26).
request(8, (ryend, lga), 1).
request(9, (cri, lga), 27).
request(10, (cimbl, lga), 7).
request(11, (dandy, lga), 5).
request(12, (jfk, teb), 8).
request(13, (lga, teb), 26).
request(14, (ryend, teb), 28).
request(15, (cri, teb), 7).
request(16, (cimbl, teb), 0).
request(17, (dandy, teb), 29).
request(18, (jfk, ryend), 23).
request(19, (lga, ryend), 23).
request(20, (teb, ryend), 14).
request(21, (cri, ryend), 12).
request(22, (cimbl, ryend), 23).
request(23, (dandy, ryend), 27).
request(24, (jfk, cri), 11).
request(25, (lga, cri), 20).
request(26, (teb, cri), 24).
request(27, (ryend, cri), 5).
request(28, (cimbl, cri), 6).
request(29, (dandy, cri), 24).
request(30, (jfk, cimbl), 25).
request(31, (lga, cimbl), 29).
request(32, (teb, cimbl), 30).
request(33, (ryend, cimbl), 3).
request(34, (cri, cimbl), 17).
request(35, (dandy, cimbl), 12).
request(36, (jfk, dandy), 22).
request(37, (lga, dandy), 16).
request(38, (teb, dandy), 7).
request(39, (ryend, dandy), 11).
request(40, (cri, dandy), 3).
request(41, (cimbl, dandy), 13).
