%[[0, 2, 30, 6, 4, 23, 9], [26, 0, 2, 23, 5, 9, 2], [11, 29, 0, 23, 29, 30, 27], [21, 15, 17, 0, 12, 12, 16], [12, 10, 23, 30, 0, 13, 17], [24, 20, 1, 20, 8, 0, 1], [30, 7, 16, 22, 0, 18, 0]]%request(ID, (edge), number of request passenger)
request(0, (lga, jfk), 26).
request(1, (teb, jfk), 11).
request(2, (ryend, jfk), 21).
request(3, (cri, jfk), 12).
request(4, (cimbl, jfk), 24).
request(5, (dandy, jfk), 30).
request(6, (jfk, lga), 2).
request(7, (teb, lga), 29).
request(8, (ryend, lga), 15).
request(9, (cri, lga), 10).
request(10, (cimbl, lga), 20).
request(11, (dandy, lga), 7).
request(12, (jfk, teb), 30).
request(13, (lga, teb), 2).
request(14, (ryend, teb), 17).
request(15, (cri, teb), 23).
request(16, (cimbl, teb), 1).
request(17, (dandy, teb), 16).
request(18, (jfk, ryend), 6).
request(19, (lga, ryend), 23).
request(20, (teb, ryend), 23).
request(21, (cri, ryend), 30).
request(22, (cimbl, ryend), 20).
request(23, (dandy, ryend), 22).
request(24, (jfk, cri), 4).
request(25, (lga, cri), 5).
request(26, (teb, cri), 29).
request(27, (ryend, cri), 12).
request(28, (cimbl, cri), 8).
request(29, (dandy, cri), 0).
request(30, (jfk, cimbl), 23).
request(31, (lga, cimbl), 9).
request(32, (teb, cimbl), 30).
request(33, (ryend, cimbl), 12).
request(34, (cri, cimbl), 13).
request(35, (dandy, cimbl), 18).
request(36, (jfk, dandy), 9).
request(37, (lga, dandy), 2).
request(38, (teb, dandy), 27).
request(39, (ryend, dandy), 16).
request(40, (cri, dandy), 17).
request(41, (cimbl, dandy), 1).
