%[[0, 30, 27, 17, 0, 15, 20], [16, 0, 9, 24, 17, 29, 13], [22, 7, 0, 3, 11, 19, 2], [10, 20, 8, 0, 18, 6, 0], [24, 18, 6, 1, 0, 29, 18], [17, 4, 12, 21, 0, 0, 29], [4, 12, 28, 7, 5, 3, 0]]%request(ID, (edge), number of request passenger)
request(0, (lga, jfk), 16).
request(1, (teb, jfk), 22).
request(2, (ryend, jfk), 10).
request(3, (cri, jfk), 24).
request(4, (cimbl, jfk), 17).
request(5, (dandy, jfk), 4).
request(6, (jfk, lga), 30).
request(7, (teb, lga), 7).
request(8, (ryend, lga), 20).
request(9, (cri, lga), 18).
request(10, (cimbl, lga), 4).
request(11, (dandy, lga), 12).
request(12, (jfk, teb), 27).
request(13, (lga, teb), 9).
request(14, (ryend, teb), 8).
request(15, (cri, teb), 6).
request(16, (cimbl, teb), 12).
request(17, (dandy, teb), 28).
request(18, (jfk, ryend), 17).
request(19, (lga, ryend), 24).
request(20, (teb, ryend), 3).
request(21, (cri, ryend), 1).
request(22, (cimbl, ryend), 21).
request(23, (dandy, ryend), 7).
request(24, (jfk, cri), 0).
request(25, (lga, cri), 17).
request(26, (teb, cri), 11).
request(27, (ryend, cri), 18).
request(28, (cimbl, cri), 0).
request(29, (dandy, cri), 5).
request(30, (jfk, cimbl), 15).
request(31, (lga, cimbl), 29).
request(32, (teb, cimbl), 19).
request(33, (ryend, cimbl), 6).
request(34, (cri, cimbl), 29).
request(35, (dandy, cimbl), 3).
request(36, (jfk, dandy), 20).
request(37, (lga, dandy), 13).
request(38, (teb, dandy), 2).
request(39, (ryend, dandy), 0).
request(40, (cri, dandy), 18).
request(41, (cimbl, dandy), 29).
