%[[0, 7, 26, 16, 17, 5, 7], [26, 0, 7, 26, 17, 8, 29], [27, 12, 0, 17, 30, 14, 23], [22, 17, 16, 0, 20, 10, 18], [21, 11, 12, 8, 0, 12, 22], [0, 27, 3, 0, 17, 0, 8], [1, 15, 21, 26, 30, 5, 0]]%request(ID, (edge), number of request passenger)
request(0, (lga, jfk), 26).
request(1, (teb, jfk), 27).
request(2, (ryend, jfk), 22).
request(3, (cri, jfk), 21).
request(4, (cimbl, jfk), 0).
request(5, (dandy, jfk), 1).
request(6, (jfk, lga), 7).
request(7, (teb, lga), 12).
request(8, (ryend, lga), 17).
request(9, (cri, lga), 11).
request(10, (cimbl, lga), 27).
request(11, (dandy, lga), 15).
request(12, (jfk, teb), 26).
request(13, (lga, teb), 7).
request(14, (ryend, teb), 16).
request(15, (cri, teb), 12).
request(16, (cimbl, teb), 3).
request(17, (dandy, teb), 21).
request(18, (jfk, ryend), 16).
request(19, (lga, ryend), 26).
request(20, (teb, ryend), 17).
request(21, (cri, ryend), 8).
request(22, (cimbl, ryend), 0).
request(23, (dandy, ryend), 26).
request(24, (jfk, cri), 17).
request(25, (lga, cri), 17).
request(26, (teb, cri), 30).
request(27, (ryend, cri), 20).
request(28, (cimbl, cri), 17).
request(29, (dandy, cri), 30).
request(30, (jfk, cimbl), 5).
request(31, (lga, cimbl), 8).
request(32, (teb, cimbl), 14).
request(33, (ryend, cimbl), 10).
request(34, (cri, cimbl), 12).
request(35, (dandy, cimbl), 5).
request(36, (jfk, dandy), 7).
request(37, (lga, dandy), 29).
request(38, (teb, dandy), 23).
request(39, (ryend, dandy), 18).
request(40, (cri, dandy), 22).
request(41, (cimbl, dandy), 8).
