%[[0, 15, 27, 8, 11, 20, 28], [7, 0, 22, 15, 24, 10, 2], [17, 10, 0, 7, 21, 17, 2], [29, 4, 11, 0, 26, 3, 11], [10, 7, 6, 2, 0, 27, 10], [19, 28, 19, 13, 20, 0, 2], [29, 29, 30, 2, 22, 19, 0]]%request(ID, (edge), number of request passenger)
request(0, (lga, jfk), 7).
request(1, (teb, jfk), 17).
request(2, (ryend, jfk), 29).
request(3, (cri, jfk), 10).
request(4, (cimbl, jfk), 19).
request(5, (dandy, jfk), 29).
request(6, (jfk, lga), 15).
request(7, (teb, lga), 10).
request(8, (ryend, lga), 4).
request(9, (cri, lga), 7).
request(10, (cimbl, lga), 28).
request(11, (dandy, lga), 29).
request(12, (jfk, teb), 27).
request(13, (lga, teb), 22).
request(14, (ryend, teb), 11).
request(15, (cri, teb), 6).
request(16, (cimbl, teb), 19).
request(17, (dandy, teb), 30).
request(18, (jfk, ryend), 8).
request(19, (lga, ryend), 15).
request(20, (teb, ryend), 7).
request(21, (cri, ryend), 2).
request(22, (cimbl, ryend), 13).
request(23, (dandy, ryend), 2).
request(24, (jfk, cri), 11).
request(25, (lga, cri), 24).
request(26, (teb, cri), 21).
request(27, (ryend, cri), 26).
request(28, (cimbl, cri), 20).
request(29, (dandy, cri), 22).
request(30, (jfk, cimbl), 20).
request(31, (lga, cimbl), 10).
request(32, (teb, cimbl), 17).
request(33, (ryend, cimbl), 3).
request(34, (cri, cimbl), 27).
request(35, (dandy, cimbl), 19).
request(36, (jfk, dandy), 28).
request(37, (lga, dandy), 2).
request(38, (teb, dandy), 2).
request(39, (ryend, dandy), 11).
request(40, (cri, dandy), 10).
request(41, (cimbl, dandy), 2).
