%[[0, 7, 2, 29, 20, 30, 14], [0, 0, 4, 27, 9, 22, 0], [21, 19, 0, 0, 29, 26, 15], [12, 15, 25, 0, 28, 17, 9], [24, 5, 23, 18, 0, 10, 21], [5, 28, 16, 29, 3, 0, 3], [11, 20, 1, 27, 10, 9, 0]]%request(ID, (edge), number of request passenger)
request(0, (lga, jfk), 0).
request(1, (teb, jfk), 21).
request(2, (ryend, jfk), 12).
request(3, (cri, jfk), 24).
request(4, (cimbl, jfk), 5).
request(5, (dandy, jfk), 11).
request(6, (jfk, lga), 7).
request(7, (teb, lga), 19).
request(8, (ryend, lga), 15).
request(9, (cri, lga), 5).
request(10, (cimbl, lga), 28).
request(11, (dandy, lga), 20).
request(12, (jfk, teb), 2).
request(13, (lga, teb), 4).
request(14, (ryend, teb), 25).
request(15, (cri, teb), 23).
request(16, (cimbl, teb), 16).
request(17, (dandy, teb), 1).
request(18, (jfk, ryend), 29).
request(19, (lga, ryend), 27).
request(20, (teb, ryend), 0).
request(21, (cri, ryend), 18).
request(22, (cimbl, ryend), 29).
request(23, (dandy, ryend), 27).
request(24, (jfk, cri), 20).
request(25, (lga, cri), 9).
request(26, (teb, cri), 29).
request(27, (ryend, cri), 28).
request(28, (cimbl, cri), 3).
request(29, (dandy, cri), 10).
request(30, (jfk, cimbl), 30).
request(31, (lga, cimbl), 22).
request(32, (teb, cimbl), 26).
request(33, (ryend, cimbl), 17).
request(34, (cri, cimbl), 10).
request(35, (dandy, cimbl), 9).
request(36, (jfk, dandy), 14).
request(37, (lga, dandy), 0).
request(38, (teb, dandy), 15).
request(39, (ryend, dandy), 9).
request(40, (cri, dandy), 21).
request(41, (cimbl, dandy), 3).
