%[[0, 9, 9, 18, 4, 8, 7], [25, 0, 15, 14, 28, 10, 28], [1, 25, 0, 29, 27, 2, 21], [27, 5, 4, 0, 12, 1, 7], [20, 25, 28, 0, 0, 13, 25], [23, 5, 4, 9, 19, 0, 20], [25, 21, 4, 16, 19, 17, 0]]%request(ID, (edge), number of request passenger)
request(0, (lga, jfk), 25).
request(1, (teb, jfk), 1).
request(2, (ryend, jfk), 27).
request(3, (cri, jfk), 20).
request(4, (cimbl, jfk), 23).
request(5, (dandy, jfk), 25).
request(6, (jfk, lga), 9).
request(7, (teb, lga), 25).
request(8, (ryend, lga), 5).
request(9, (cri, lga), 25).
request(10, (cimbl, lga), 5).
request(11, (dandy, lga), 21).
request(12, (jfk, teb), 9).
request(13, (lga, teb), 15).
request(14, (ryend, teb), 4).
request(15, (cri, teb), 28).
request(16, (cimbl, teb), 4).
request(17, (dandy, teb), 4).
request(18, (jfk, ryend), 18).
request(19, (lga, ryend), 14).
request(20, (teb, ryend), 29).
request(21, (cri, ryend), 0).
request(22, (cimbl, ryend), 9).
request(23, (dandy, ryend), 16).
request(24, (jfk, cri), 4).
request(25, (lga, cri), 28).
request(26, (teb, cri), 27).
request(27, (ryend, cri), 12).
request(28, (cimbl, cri), 19).
request(29, (dandy, cri), 19).
request(30, (jfk, cimbl), 8).
request(31, (lga, cimbl), 10).
request(32, (teb, cimbl), 2).
request(33, (ryend, cimbl), 1).
request(34, (cri, cimbl), 13).
request(35, (dandy, cimbl), 17).
request(36, (jfk, dandy), 7).
request(37, (lga, dandy), 28).
request(38, (teb, dandy), 21).
request(39, (ryend, dandy), 7).
request(40, (cri, dandy), 25).
request(41, (cimbl, dandy), 20).
