%[[0, 25, 18, 26, 2, 15, 24], [8, 0, 1, 0, 4, 21, 18], [15, 30, 0, 24, 23, 11, 10], [24, 0, 8, 0, 15, 25, 6], [23, 27, 13, 29, 0, 17, 17], [21, 3, 6, 18, 17, 0, 22], [25, 23, 8, 21, 25, 19, 0]]%request(ID, (edge), number of request passenger)
request(0, (lga, jfk), 8).
request(1, (teb, jfk), 15).
request(2, (ryend, jfk), 24).
request(3, (cri, jfk), 23).
request(4, (cimbl, jfk), 21).
request(5, (dandy, jfk), 25).
request(6, (jfk, lga), 25).
request(7, (teb, lga), 30).
request(8, (ryend, lga), 0).
request(9, (cri, lga), 27).
request(10, (cimbl, lga), 3).
request(11, (dandy, lga), 23).
request(12, (jfk, teb), 18).
request(13, (lga, teb), 1).
request(14, (ryend, teb), 8).
request(15, (cri, teb), 13).
request(16, (cimbl, teb), 6).
request(17, (dandy, teb), 8).
request(18, (jfk, ryend), 26).
request(19, (lga, ryend), 0).
request(20, (teb, ryend), 24).
request(21, (cri, ryend), 29).
request(22, (cimbl, ryend), 18).
request(23, (dandy, ryend), 21).
request(24, (jfk, cri), 2).
request(25, (lga, cri), 4).
request(26, (teb, cri), 23).
request(27, (ryend, cri), 15).
request(28, (cimbl, cri), 17).
request(29, (dandy, cri), 25).
request(30, (jfk, cimbl), 15).
request(31, (lga, cimbl), 21).
request(32, (teb, cimbl), 11).
request(33, (ryend, cimbl), 25).
request(34, (cri, cimbl), 17).
request(35, (dandy, cimbl), 19).
request(36, (jfk, dandy), 24).
request(37, (lga, dandy), 18).
request(38, (teb, dandy), 10).
request(39, (ryend, dandy), 6).
request(40, (cri, dandy), 17).
request(41, (cimbl, dandy), 22).
