%[[0, 21, 1, 3, 25, 5, 2], [19, 0, 11, 10, 29, 29, 27], [25, 25, 0, 27, 17, 13, 14], [26, 13, 18, 0, 14, 26, 16], [10, 17, 17, 25, 0, 14, 4], [13, 12, 2, 13, 9, 0, 4], [6, 4, 9, 6, 22, 29, 0]]%request(ID, (edge), number of request passenger)
request(0, (lga, jfk), 19).
request(1, (teb, jfk), 25).
request(2, (ryend, jfk), 26).
request(3, (cri, jfk), 10).
request(4, (cimbl, jfk), 13).
request(5, (dandy, jfk), 6).
request(6, (jfk, lga), 21).
request(7, (teb, lga), 25).
request(8, (ryend, lga), 13).
request(9, (cri, lga), 17).
request(10, (cimbl, lga), 12).
request(11, (dandy, lga), 4).
request(12, (jfk, teb), 1).
request(13, (lga, teb), 11).
request(14, (ryend, teb), 18).
request(15, (cri, teb), 17).
request(16, (cimbl, teb), 2).
request(17, (dandy, teb), 9).
request(18, (jfk, ryend), 3).
request(19, (lga, ryend), 10).
request(20, (teb, ryend), 27).
request(21, (cri, ryend), 25).
request(22, (cimbl, ryend), 13).
request(23, (dandy, ryend), 6).
request(24, (jfk, cri), 25).
request(25, (lga, cri), 29).
request(26, (teb, cri), 17).
request(27, (ryend, cri), 14).
request(28, (cimbl, cri), 9).
request(29, (dandy, cri), 22).
request(30, (jfk, cimbl), 5).
request(31, (lga, cimbl), 29).
request(32, (teb, cimbl), 13).
request(33, (ryend, cimbl), 26).
request(34, (cri, cimbl), 14).
request(35, (dandy, cimbl), 29).
request(36, (jfk, dandy), 2).
request(37, (lga, dandy), 27).
request(38, (teb, dandy), 14).
request(39, (ryend, dandy), 16).
request(40, (cri, dandy), 4).
request(41, (cimbl, dandy), 4).
