%[[0, 13, 9, 9, 16, 27, 7], [14, 0, 14, 16, 14, 17, 29], [10, 26, 0, 20, 13, 28, 7], [2, 28, 17, 0, 14, 8, 6], [20, 15, 19, 22, 0, 1, 8], [3, 5, 16, 23, 27, 0, 4], [25, 21, 26, 3, 4, 22, 0]]%request(ID, (edge), number of request passenger)
request(0, (lga, jfk), 14).
request(1, (teb, jfk), 10).
request(2, (ryend, jfk), 2).
request(3, (cri, jfk), 20).
request(4, (cimbl, jfk), 3).
request(5, (dandy, jfk), 25).
request(6, (jfk, lga), 13).
request(7, (teb, lga), 26).
request(8, (ryend, lga), 28).
request(9, (cri, lga), 15).
request(10, (cimbl, lga), 5).
request(11, (dandy, lga), 21).
request(12, (jfk, teb), 9).
request(13, (lga, teb), 14).
request(14, (ryend, teb), 17).
request(15, (cri, teb), 19).
request(16, (cimbl, teb), 16).
request(17, (dandy, teb), 26).
request(18, (jfk, ryend), 9).
request(19, (lga, ryend), 16).
request(20, (teb, ryend), 20).
request(21, (cri, ryend), 22).
request(22, (cimbl, ryend), 23).
request(23, (dandy, ryend), 3).
request(24, (jfk, cri), 16).
request(25, (lga, cri), 14).
request(26, (teb, cri), 13).
request(27, (ryend, cri), 14).
request(28, (cimbl, cri), 27).
request(29, (dandy, cri), 4).
request(30, (jfk, cimbl), 27).
request(31, (lga, cimbl), 17).
request(32, (teb, cimbl), 28).
request(33, (ryend, cimbl), 8).
request(34, (cri, cimbl), 1).
request(35, (dandy, cimbl), 22).
request(36, (jfk, dandy), 7).
request(37, (lga, dandy), 29).
request(38, (teb, dandy), 7).
request(39, (ryend, dandy), 6).
request(40, (cri, dandy), 8).
request(41, (cimbl, dandy), 4).
