%[[0, 29, 18, 5, 2, 26, 7], [28, 0, 14, 9, 28, 21, 11], [5, 16, 0, 5, 5, 0, 30], [8, 20, 5, 0, 27, 3, 0], [15, 15, 16, 0, 0, 24, 27], [10, 30, 18, 20, 5, 0, 22], [6, 22, 2, 10, 17, 14, 0]]%request(ID, (edge), number of request passenger)
request(0, (lga, jfk), 28).
request(1, (teb, jfk), 5).
request(2, (ryend, jfk), 8).
request(3, (cri, jfk), 15).
request(4, (cimbl, jfk), 10).
request(5, (dandy, jfk), 6).
request(6, (jfk, lga), 29).
request(7, (teb, lga), 16).
request(8, (ryend, lga), 20).
request(9, (cri, lga), 15).
request(10, (cimbl, lga), 30).
request(11, (dandy, lga), 22).
request(12, (jfk, teb), 18).
request(13, (lga, teb), 14).
request(14, (ryend, teb), 5).
request(15, (cri, teb), 16).
request(16, (cimbl, teb), 18).
request(17, (dandy, teb), 2).
request(18, (jfk, ryend), 5).
request(19, (lga, ryend), 9).
request(20, (teb, ryend), 5).
request(21, (cri, ryend), 0).
request(22, (cimbl, ryend), 20).
request(23, (dandy, ryend), 10).
request(24, (jfk, cri), 2).
request(25, (lga, cri), 28).
request(26, (teb, cri), 5).
request(27, (ryend, cri), 27).
request(28, (cimbl, cri), 5).
request(29, (dandy, cri), 17).
request(30, (jfk, cimbl), 26).
request(31, (lga, cimbl), 21).
request(32, (teb, cimbl), 0).
request(33, (ryend, cimbl), 3).
request(34, (cri, cimbl), 24).
request(35, (dandy, cimbl), 14).
request(36, (jfk, dandy), 7).
request(37, (lga, dandy), 11).
request(38, (teb, dandy), 30).
request(39, (ryend, dandy), 0).
request(40, (cri, dandy), 27).
request(41, (cimbl, dandy), 22).
