%[[0, 15, 3, 20, 19, 12, 17], [29, 0, 21, 0, 6, 8, 22], [29, 25, 0, 20, 25, 24, 6], [22, 26, 24, 0, 20, 4, 2], [27, 13, 14, 6, 0, 23, 0], [2, 12, 21, 29, 0, 0, 29], [2, 5, 3, 18, 1, 30, 0]]%request(ID, (edge), number of request passenger)
request(0, (lga, jfk), 29).
request(1, (teb, jfk), 29).
request(2, (ryend, jfk), 22).
request(3, (cri, jfk), 27).
request(4, (cimbl, jfk), 2).
request(5, (dandy, jfk), 2).
request(6, (jfk, lga), 15).
request(7, (teb, lga), 25).
request(8, (ryend, lga), 26).
request(9, (cri, lga), 13).
request(10, (cimbl, lga), 12).
request(11, (dandy, lga), 5).
request(12, (jfk, teb), 3).
request(13, (lga, teb), 21).
request(14, (ryend, teb), 24).
request(15, (cri, teb), 14).
request(16, (cimbl, teb), 21).
request(17, (dandy, teb), 3).
request(18, (jfk, ryend), 20).
request(19, (lga, ryend), 0).
request(20, (teb, ryend), 20).
request(21, (cri, ryend), 6).
request(22, (cimbl, ryend), 29).
request(23, (dandy, ryend), 18).
request(24, (jfk, cri), 19).
request(25, (lga, cri), 6).
request(26, (teb, cri), 25).
request(27, (ryend, cri), 20).
request(28, (cimbl, cri), 0).
request(29, (dandy, cri), 1).
request(30, (jfk, cimbl), 12).
request(31, (lga, cimbl), 8).
request(32, (teb, cimbl), 24).
request(33, (ryend, cimbl), 4).
request(34, (cri, cimbl), 23).
request(35, (dandy, cimbl), 30).
request(36, (jfk, dandy), 17).
request(37, (lga, dandy), 22).
request(38, (teb, dandy), 6).
request(39, (ryend, dandy), 2).
request(40, (cri, dandy), 0).
request(41, (cimbl, dandy), 29).
