%[[0, 2, 3, 24, 13, 14, 13], [8, 0, 30, 19, 13, 15, 19], [8, 29, 0, 28, 6, 20, 1], [21, 5, 9, 0, 1, 5, 14], [5, 3, 21, 3, 0, 15, 9], [7, 12, 23, 28, 18, 0, 0], [12, 20, 16, 29, 28, 23, 0]]%request(ID, (edge), number of request passenger)
request(0, (lga, jfk), 8).
request(1, (teb, jfk), 8).
request(2, (ryend, jfk), 21).
request(3, (cri, jfk), 5).
request(4, (cimbl, jfk), 7).
request(5, (dandy, jfk), 12).
request(6, (jfk, lga), 2).
request(7, (teb, lga), 29).
request(8, (ryend, lga), 5).
request(9, (cri, lga), 3).
request(10, (cimbl, lga), 12).
request(11, (dandy, lga), 20).
request(12, (jfk, teb), 3).
request(13, (lga, teb), 30).
request(14, (ryend, teb), 9).
request(15, (cri, teb), 21).
request(16, (cimbl, teb), 23).
request(17, (dandy, teb), 16).
request(18, (jfk, ryend), 24).
request(19, (lga, ryend), 19).
request(20, (teb, ryend), 28).
request(21, (cri, ryend), 3).
request(22, (cimbl, ryend), 28).
request(23, (dandy, ryend), 29).
request(24, (jfk, cri), 13).
request(25, (lga, cri), 13).
request(26, (teb, cri), 6).
request(27, (ryend, cri), 1).
request(28, (cimbl, cri), 18).
request(29, (dandy, cri), 28).
request(30, (jfk, cimbl), 14).
request(31, (lga, cimbl), 15).
request(32, (teb, cimbl), 20).
request(33, (ryend, cimbl), 5).
request(34, (cri, cimbl), 15).
request(35, (dandy, cimbl), 23).
request(36, (jfk, dandy), 13).
request(37, (lga, dandy), 19).
request(38, (teb, dandy), 1).
request(39, (ryend, dandy), 14).
request(40, (cri, dandy), 9).
request(41, (cimbl, dandy), 0).
