%[[0, 14, 14, 9, 29, 29, 8], [15, 0, 21, 2, 12, 23, 2], [2, 21, 0, 6, 9, 2, 26], [20, 9, 26, 0, 23, 19, 1], [7, 21, 27, 30, 0, 27, 4], [10, 7, 8, 19, 21, 0, 0], [1, 29, 28, 28, 19, 22, 0]]%request(ID, (edge), number of request passenger)
request(0, (lga, jfk), 15).
request(1, (teb, jfk), 2).
request(2, (ryend, jfk), 20).
request(3, (cri, jfk), 7).
request(4, (cimbl, jfk), 10).
request(5, (dandy, jfk), 1).
request(6, (jfk, lga), 14).
request(7, (teb, lga), 21).
request(8, (ryend, lga), 9).
request(9, (cri, lga), 21).
request(10, (cimbl, lga), 7).
request(11, (dandy, lga), 29).
request(12, (jfk, teb), 14).
request(13, (lga, teb), 21).
request(14, (ryend, teb), 26).
request(15, (cri, teb), 27).
request(16, (cimbl, teb), 8).
request(17, (dandy, teb), 28).
request(18, (jfk, ryend), 9).
request(19, (lga, ryend), 2).
request(20, (teb, ryend), 6).
request(21, (cri, ryend), 30).
request(22, (cimbl, ryend), 19).
request(23, (dandy, ryend), 28).
request(24, (jfk, cri), 29).
request(25, (lga, cri), 12).
request(26, (teb, cri), 9).
request(27, (ryend, cri), 23).
request(28, (cimbl, cri), 21).
request(29, (dandy, cri), 19).
request(30, (jfk, cimbl), 29).
request(31, (lga, cimbl), 23).
request(32, (teb, cimbl), 2).
request(33, (ryend, cimbl), 19).
request(34, (cri, cimbl), 27).
request(35, (dandy, cimbl), 22).
request(36, (jfk, dandy), 8).
request(37, (lga, dandy), 2).
request(38, (teb, dandy), 26).
request(39, (ryend, dandy), 1).
request(40, (cri, dandy), 4).
request(41, (cimbl, dandy), 0).
