%[[0, 15, 5, 17, 6, 25, 29], [10, 0, 9, 10, 25, 22, 0], [15, 11, 0, 11, 2, 12, 14], [10, 5, 10, 0, 20, 0, 28], [16, 22, 2, 20, 0, 5, 10], [0, 13, 25, 4, 4, 0, 23], [12, 9, 28, 9, 23, 27, 0]]%request(ID, (edge), number of request passenger)
request(0, (lga, jfk), 10).
request(1, (teb, jfk), 15).
request(2, (ryend, jfk), 10).
request(3, (cri, jfk), 16).
request(4, (cimbl, jfk), 0).
request(5, (dandy, jfk), 12).
request(6, (jfk, lga), 15).
request(7, (teb, lga), 11).
request(8, (ryend, lga), 5).
request(9, (cri, lga), 22).
request(10, (cimbl, lga), 13).
request(11, (dandy, lga), 9).
request(12, (jfk, teb), 5).
request(13, (lga, teb), 9).
request(14, (ryend, teb), 10).
request(15, (cri, teb), 2).
request(16, (cimbl, teb), 25).
request(17, (dandy, teb), 28).
request(18, (jfk, ryend), 17).
request(19, (lga, ryend), 10).
request(20, (teb, ryend), 11).
request(21, (cri, ryend), 20).
request(22, (cimbl, ryend), 4).
request(23, (dandy, ryend), 9).
request(24, (jfk, cri), 6).
request(25, (lga, cri), 25).
request(26, (teb, cri), 2).
request(27, (ryend, cri), 20).
request(28, (cimbl, cri), 4).
request(29, (dandy, cri), 23).
request(30, (jfk, cimbl), 25).
request(31, (lga, cimbl), 22).
request(32, (teb, cimbl), 12).
request(33, (ryend, cimbl), 0).
request(34, (cri, cimbl), 5).
request(35, (dandy, cimbl), 27).
request(36, (jfk, dandy), 29).
request(37, (lga, dandy), 0).
request(38, (teb, dandy), 14).
request(39, (ryend, dandy), 28).
request(40, (cri, dandy), 10).
request(41, (cimbl, dandy), 23).
