%[[0, 23, 14, 30, 22, 23, 26], [29, 0, 16, 3, 19, 18, 7], [13, 15, 0, 8, 23, 27, 21], [10, 14, 17, 0, 11, 5, 17], [20, 24, 24, 25, 0, 3, 1], [17, 23, 15, 3, 27, 0, 10], [1, 2, 25, 19, 5, 6, 0]]%request(ID, (edge), number of request passenger)
request(0, (lga, jfk), 29).
request(1, (teb, jfk), 13).
request(2, (ryend, jfk), 10).
request(3, (cri, jfk), 20).
request(4, (cimbl, jfk), 17).
request(5, (dandy, jfk), 1).
request(6, (jfk, lga), 23).
request(7, (teb, lga), 15).
request(8, (ryend, lga), 14).
request(9, (cri, lga), 24).
request(10, (cimbl, lga), 23).
request(11, (dandy, lga), 2).
request(12, (jfk, teb), 14).
request(13, (lga, teb), 16).
request(14, (ryend, teb), 17).
request(15, (cri, teb), 24).
request(16, (cimbl, teb), 15).
request(17, (dandy, teb), 25).
request(18, (jfk, ryend), 30).
request(19, (lga, ryend), 3).
request(20, (teb, ryend), 8).
request(21, (cri, ryend), 25).
request(22, (cimbl, ryend), 3).
request(23, (dandy, ryend), 19).
request(24, (jfk, cri), 22).
request(25, (lga, cri), 19).
request(26, (teb, cri), 23).
request(27, (ryend, cri), 11).
request(28, (cimbl, cri), 27).
request(29, (dandy, cri), 5).
request(30, (jfk, cimbl), 23).
request(31, (lga, cimbl), 18).
request(32, (teb, cimbl), 27).
request(33, (ryend, cimbl), 5).
request(34, (cri, cimbl), 3).
request(35, (dandy, cimbl), 6).
request(36, (jfk, dandy), 26).
request(37, (lga, dandy), 7).
request(38, (teb, dandy), 21).
request(39, (ryend, dandy), 17).
request(40, (cri, dandy), 1).
request(41, (cimbl, dandy), 10).
