%[[0, 2, 9, 13, 29, 7, 25], [14, 0, 9, 8, 27, 25, 17], [3, 23, 0, 27, 29, 26, 15], [5, 14, 16, 0, 4, 29, 25], [22, 2, 22, 11, 0, 23, 5], [13, 23, 22, 14, 20, 0, 16], [0, 16, 3, 26, 12, 4, 0]]%request(ID, (edge), number of request passenger)
request(0, (lga, jfk), 14).
request(1, (teb, jfk), 3).
request(2, (ryend, jfk), 5).
request(3, (cri, jfk), 22).
request(4, (cimbl, jfk), 13).
request(5, (dandy, jfk), 0).
request(6, (jfk, lga), 2).
request(7, (teb, lga), 23).
request(8, (ryend, lga), 14).
request(9, (cri, lga), 2).
request(10, (cimbl, lga), 23).
request(11, (dandy, lga), 16).
request(12, (jfk, teb), 9).
request(13, (lga, teb), 9).
request(14, (ryend, teb), 16).
request(15, (cri, teb), 22).
request(16, (cimbl, teb), 22).
request(17, (dandy, teb), 3).
request(18, (jfk, ryend), 13).
request(19, (lga, ryend), 8).
request(20, (teb, ryend), 27).
request(21, (cri, ryend), 11).
request(22, (cimbl, ryend), 14).
request(23, (dandy, ryend), 26).
request(24, (jfk, cri), 29).
request(25, (lga, cri), 27).
request(26, (teb, cri), 29).
request(27, (ryend, cri), 4).
request(28, (cimbl, cri), 20).
request(29, (dandy, cri), 12).
request(30, (jfk, cimbl), 7).
request(31, (lga, cimbl), 25).
request(32, (teb, cimbl), 26).
request(33, (ryend, cimbl), 29).
request(34, (cri, cimbl), 23).
request(35, (dandy, cimbl), 4).
request(36, (jfk, dandy), 25).
request(37, (lga, dandy), 17).
request(38, (teb, dandy), 15).
request(39, (ryend, dandy), 25).
request(40, (cri, dandy), 5).
request(41, (cimbl, dandy), 16).
