%[[0, 29, 3, 9, 22, 14, 14], [4, 0, 10, 3, 4, 26, 21], [21, 19, 0, 6, 22, 21, 13], [25, 12, 7, 0, 12, 20, 2], [16, 10, 24, 8, 0, 12, 24], [28, 14, 27, 3, 2, 0, 1], [15, 11, 9, 4, 0, 8, 0]]%request(ID, (edge), number of request passenger)
request(0, (lga, jfk), 4).
request(1, (teb, jfk), 21).
request(2, (ryend, jfk), 25).
request(3, (cri, jfk), 16).
request(4, (cimbl, jfk), 28).
request(5, (dandy, jfk), 15).
request(6, (jfk, lga), 29).
request(7, (teb, lga), 19).
request(8, (ryend, lga), 12).
request(9, (cri, lga), 10).
request(10, (cimbl, lga), 14).
request(11, (dandy, lga), 11).
request(12, (jfk, teb), 3).
request(13, (lga, teb), 10).
request(14, (ryend, teb), 7).
request(15, (cri, teb), 24).
request(16, (cimbl, teb), 27).
request(17, (dandy, teb), 9).
request(18, (jfk, ryend), 9).
request(19, (lga, ryend), 3).
request(20, (teb, ryend), 6).
request(21, (cri, ryend), 8).
request(22, (cimbl, ryend), 3).
request(23, (dandy, ryend), 4).
request(24, (jfk, cri), 22).
request(25, (lga, cri), 4).
request(26, (teb, cri), 22).
request(27, (ryend, cri), 12).
request(28, (cimbl, cri), 2).
request(29, (dandy, cri), 0).
request(30, (jfk, cimbl), 14).
request(31, (lga, cimbl), 26).
request(32, (teb, cimbl), 21).
request(33, (ryend, cimbl), 20).
request(34, (cri, cimbl), 12).
request(35, (dandy, cimbl), 8).
request(36, (jfk, dandy), 14).
request(37, (lga, dandy), 21).
request(38, (teb, dandy), 13).
request(39, (ryend, dandy), 2).
request(40, (cri, dandy), 24).
request(41, (cimbl, dandy), 1).
