%[[0, 10, 16, 19, 25, 0, 8], [4, 0, 26, 24, 6, 8, 2], [6, 16, 0, 1, 19, 6, 16], [0, 26, 22, 0, 16, 11, 29], [26, 14, 24, 4, 0, 11, 20], [5, 1, 11, 19, 0, 0, 12], [20, 18, 6, 30, 4, 10, 0]]%request(ID, (edge), number of request passenger)
request(0, (lga, jfk), 4).
request(1, (teb, jfk), 6).
request(2, (ryend, jfk), 0).
request(3, (cri, jfk), 26).
request(4, (cimbl, jfk), 5).
request(5, (dandy, jfk), 20).
request(6, (jfk, lga), 10).
request(7, (teb, lga), 16).
request(8, (ryend, lga), 26).
request(9, (cri, lga), 14).
request(10, (cimbl, lga), 1).
request(11, (dandy, lga), 18).
request(12, (jfk, teb), 16).
request(13, (lga, teb), 26).
request(14, (ryend, teb), 22).
request(15, (cri, teb), 24).
request(16, (cimbl, teb), 11).
request(17, (dandy, teb), 6).
request(18, (jfk, ryend), 19).
request(19, (lga, ryend), 24).
request(20, (teb, ryend), 1).
request(21, (cri, ryend), 4).
request(22, (cimbl, ryend), 19).
request(23, (dandy, ryend), 30).
request(24, (jfk, cri), 25).
request(25, (lga, cri), 6).
request(26, (teb, cri), 19).
request(27, (ryend, cri), 16).
request(28, (cimbl, cri), 0).
request(29, (dandy, cri), 4).
request(30, (jfk, cimbl), 0).
request(31, (lga, cimbl), 8).
request(32, (teb, cimbl), 6).
request(33, (ryend, cimbl), 11).
request(34, (cri, cimbl), 11).
request(35, (dandy, cimbl), 10).
request(36, (jfk, dandy), 8).
request(37, (lga, dandy), 2).
request(38, (teb, dandy), 16).
request(39, (ryend, dandy), 29).
request(40, (cri, dandy), 20).
request(41, (cimbl, dandy), 12).
