%[[0, 8, 3, 16, 15, 18, 5], [14, 0, 9, 18, 2, 15, 12], [16, 16, 0, 6, 14, 3, 0], [8, 13, 24, 0, 27, 0, 13], [11, 17, 13, 15, 0, 17, 13], [5, 27, 1, 29, 8, 0, 18], [19, 6, 25, 28, 22, 27, 0]]%request(ID, (edge), number of request passenger)
request(0, (lga, jfk), 14).
request(1, (teb, jfk), 16).
request(2, (ryend, jfk), 8).
request(3, (cri, jfk), 11).
request(4, (cimbl, jfk), 5).
request(5, (dandy, jfk), 19).
request(6, (jfk, lga), 8).
request(7, (teb, lga), 16).
request(8, (ryend, lga), 13).
request(9, (cri, lga), 17).
request(10, (cimbl, lga), 27).
request(11, (dandy, lga), 6).
request(12, (jfk, teb), 3).
request(13, (lga, teb), 9).
request(14, (ryend, teb), 24).
request(15, (cri, teb), 13).
request(16, (cimbl, teb), 1).
request(17, (dandy, teb), 25).
request(18, (jfk, ryend), 16).
request(19, (lga, ryend), 18).
request(20, (teb, ryend), 6).
request(21, (cri, ryend), 15).
request(22, (cimbl, ryend), 29).
request(23, (dandy, ryend), 28).
request(24, (jfk, cri), 15).
request(25, (lga, cri), 2).
request(26, (teb, cri), 14).
request(27, (ryend, cri), 27).
request(28, (cimbl, cri), 8).
request(29, (dandy, cri), 22).
request(30, (jfk, cimbl), 18).
request(31, (lga, cimbl), 15).
request(32, (teb, cimbl), 3).
request(33, (ryend, cimbl), 0).
request(34, (cri, cimbl), 17).
request(35, (dandy, cimbl), 27).
request(36, (jfk, dandy), 5).
request(37, (lga, dandy), 12).
request(38, (teb, dandy), 0).
request(39, (ryend, dandy), 13).
request(40, (cri, dandy), 13).
request(41, (cimbl, dandy), 18).
