%[[0, 27, 19, 16, 27, 3, 10], [3, 0, 25, 9, 5, 28, 27], [29, 6, 0, 11, 3, 14, 25], [14, 16, 29, 0, 8, 14, 5], [10, 8, 16, 19, 0, 0, 22], [16, 1, 4, 30, 26, 0, 7], [14, 4, 30, 19, 13, 7, 0]]%request(ID, (edge), number of request passenger)
request(0, (lga, jfk), 3).
request(1, (teb, jfk), 29).
request(2, (ryend, jfk), 14).
request(3, (cri, jfk), 10).
request(4, (cimbl, jfk), 16).
request(5, (dandy, jfk), 14).
request(6, (jfk, lga), 27).
request(7, (teb, lga), 6).
request(8, (ryend, lga), 16).
request(9, (cri, lga), 8).
request(10, (cimbl, lga), 1).
request(11, (dandy, lga), 4).
request(12, (jfk, teb), 19).
request(13, (lga, teb), 25).
request(14, (ryend, teb), 29).
request(15, (cri, teb), 16).
request(16, (cimbl, teb), 4).
request(17, (dandy, teb), 30).
request(18, (jfk, ryend), 16).
request(19, (lga, ryend), 9).
request(20, (teb, ryend), 11).
request(21, (cri, ryend), 19).
request(22, (cimbl, ryend), 30).
request(23, (dandy, ryend), 19).
request(24, (jfk, cri), 27).
request(25, (lga, cri), 5).
request(26, (teb, cri), 3).
request(27, (ryend, cri), 8).
request(28, (cimbl, cri), 26).
request(29, (dandy, cri), 13).
request(30, (jfk, cimbl), 3).
request(31, (lga, cimbl), 28).
request(32, (teb, cimbl), 14).
request(33, (ryend, cimbl), 14).
request(34, (cri, cimbl), 0).
request(35, (dandy, cimbl), 7).
request(36, (jfk, dandy), 10).
request(37, (lga, dandy), 27).
request(38, (teb, dandy), 25).
request(39, (ryend, dandy), 5).
request(40, (cri, dandy), 22).
request(41, (cimbl, dandy), 7).
