%[[0, 25, 8, 10, 6, 7, 6], [26, 0, 30, 3, 9, 15, 30], [17, 19, 0, 7, 4, 17, 20], [21, 16, 0, 0, 27, 8, 0], [26, 30, 15, 5, 0, 25, 26], [6, 16, 26, 12, 5, 0, 10], [10, 3, 2, 17, 24, 8, 0]]%request(ID, (edge), number of request passenger)
request(0, (lga, jfk), 26).
request(1, (teb, jfk), 17).
request(2, (ryend, jfk), 21).
request(3, (cri, jfk), 26).
request(4, (cimbl, jfk), 6).
request(5, (dandy, jfk), 10).
request(6, (jfk, lga), 25).
request(7, (teb, lga), 19).
request(8, (ryend, lga), 16).
request(9, (cri, lga), 30).
request(10, (cimbl, lga), 16).
request(11, (dandy, lga), 3).
request(12, (jfk, teb), 8).
request(13, (lga, teb), 30).
request(14, (ryend, teb), 0).
request(15, (cri, teb), 15).
request(16, (cimbl, teb), 26).
request(17, (dandy, teb), 2).
request(18, (jfk, ryend), 10).
request(19, (lga, ryend), 3).
request(20, (teb, ryend), 7).
request(21, (cri, ryend), 5).
request(22, (cimbl, ryend), 12).
request(23, (dandy, ryend), 17).
request(24, (jfk, cri), 6).
request(25, (lga, cri), 9).
request(26, (teb, cri), 4).
request(27, (ryend, cri), 27).
request(28, (cimbl, cri), 5).
request(29, (dandy, cri), 24).
request(30, (jfk, cimbl), 7).
request(31, (lga, cimbl), 15).
request(32, (teb, cimbl), 17).
request(33, (ryend, cimbl), 8).
request(34, (cri, cimbl), 25).
request(35, (dandy, cimbl), 8).
request(36, (jfk, dandy), 6).
request(37, (lga, dandy), 30).
request(38, (teb, dandy), 20).
request(39, (ryend, dandy), 0).
request(40, (cri, dandy), 26).
request(41, (cimbl, dandy), 10).
