%[[0, 2, 25, 19, 23, 5, 11], [22, 0, 17, 19, 11, 9, 23], [22, 21, 0, 19, 4, 22, 22], [10, 7, 12, 0, 4, 20, 0], [22, 25, 7, 14, 0, 25, 0], [14, 2, 24, 9, 2, 0, 16], [10, 23, 0, 27, 13, 28, 0]]%request(ID, (edge), number of request passenger)
request(0, (lga, jfk), 22).
request(1, (teb, jfk), 22).
request(2, (ryend, jfk), 10).
request(3, (cri, jfk), 22).
request(4, (cimbl, jfk), 14).
request(5, (dandy, jfk), 10).
request(6, (jfk, lga), 2).
request(7, (teb, lga), 21).
request(8, (ryend, lga), 7).
request(9, (cri, lga), 25).
request(10, (cimbl, lga), 2).
request(11, (dandy, lga), 23).
request(12, (jfk, teb), 25).
request(13, (lga, teb), 17).
request(14, (ryend, teb), 12).
request(15, (cri, teb), 7).
request(16, (cimbl, teb), 24).
request(17, (dandy, teb), 0).
request(18, (jfk, ryend), 19).
request(19, (lga, ryend), 19).
request(20, (teb, ryend), 19).
request(21, (cri, ryend), 14).
request(22, (cimbl, ryend), 9).
request(23, (dandy, ryend), 27).
request(24, (jfk, cri), 23).
request(25, (lga, cri), 11).
request(26, (teb, cri), 4).
request(27, (ryend, cri), 4).
request(28, (cimbl, cri), 2).
request(29, (dandy, cri), 13).
request(30, (jfk, cimbl), 5).
request(31, (lga, cimbl), 9).
request(32, (teb, cimbl), 22).
request(33, (ryend, cimbl), 20).
request(34, (cri, cimbl), 25).
request(35, (dandy, cimbl), 28).
request(36, (jfk, dandy), 11).
request(37, (lga, dandy), 23).
request(38, (teb, dandy), 22).
request(39, (ryend, dandy), 0).
request(40, (cri, dandy), 0).
request(41, (cimbl, dandy), 16).
