%[[0, 10, 30, 4, 12, 20, 1], [2, 0, 26, 17, 3, 11, 18], [1, 29, 0, 16, 6, 1, 2], [13, 13, 2, 0, 7, 2, 17], [13, 1, 26, 18, 0, 3, 30], [7, 20, 20, 18, 30, 0, 1], [18, 18, 12, 1, 7, 1, 0]]%request(ID, (edge), number of request passenger)
request(0, (lga, jfk), 2).
request(1, (teb, jfk), 1).
request(2, (ryend, jfk), 13).
request(3, (cri, jfk), 13).
request(4, (cimbl, jfk), 7).
request(5, (dandy, jfk), 18).
request(6, (jfk, lga), 10).
request(7, (teb, lga), 29).
request(8, (ryend, lga), 13).
request(9, (cri, lga), 1).
request(10, (cimbl, lga), 20).
request(11, (dandy, lga), 18).
request(12, (jfk, teb), 30).
request(13, (lga, teb), 26).
request(14, (ryend, teb), 2).
request(15, (cri, teb), 26).
request(16, (cimbl, teb), 20).
request(17, (dandy, teb), 12).
request(18, (jfk, ryend), 4).
request(19, (lga, ryend), 17).
request(20, (teb, ryend), 16).
request(21, (cri, ryend), 18).
request(22, (cimbl, ryend), 18).
request(23, (dandy, ryend), 1).
request(24, (jfk, cri), 12).
request(25, (lga, cri), 3).
request(26, (teb, cri), 6).
request(27, (ryend, cri), 7).
request(28, (cimbl, cri), 30).
request(29, (dandy, cri), 7).
request(30, (jfk, cimbl), 20).
request(31, (lga, cimbl), 11).
request(32, (teb, cimbl), 1).
request(33, (ryend, cimbl), 2).
request(34, (cri, cimbl), 3).
request(35, (dandy, cimbl), 1).
request(36, (jfk, dandy), 1).
request(37, (lga, dandy), 18).
request(38, (teb, dandy), 2).
request(39, (ryend, dandy), 17).
request(40, (cri, dandy), 30).
request(41, (cimbl, dandy), 1).
