%[[0, 26, 6, 3, 9, 29, 21], [23, 0, 27, 8, 23, 13, 28], [1, 20, 0, 4, 28, 20, 12], [24, 21, 6, 0, 29, 22, 15], [12, 17, 0, 26, 0, 29, 7], [23, 5, 11, 13, 10, 0, 20], [13, 22, 26, 5, 5, 24, 0]]%request(ID, (edge), number of request passenger)
request(0, (lga, jfk), 23).
request(1, (teb, jfk), 1).
request(2, (ryend, jfk), 24).
request(3, (cri, jfk), 12).
request(4, (cimbl, jfk), 23).
request(5, (dandy, jfk), 13).
request(6, (jfk, lga), 26).
request(7, (teb, lga), 20).
request(8, (ryend, lga), 21).
request(9, (cri, lga), 17).
request(10, (cimbl, lga), 5).
request(11, (dandy, lga), 22).
request(12, (jfk, teb), 6).
request(13, (lga, teb), 27).
request(14, (ryend, teb), 6).
request(15, (cri, teb), 0).
request(16, (cimbl, teb), 11).
request(17, (dandy, teb), 26).
request(18, (jfk, ryend), 3).
request(19, (lga, ryend), 8).
request(20, (teb, ryend), 4).
request(21, (cri, ryend), 26).
request(22, (cimbl, ryend), 13).
request(23, (dandy, ryend), 5).
request(24, (jfk, cri), 9).
request(25, (lga, cri), 23).
request(26, (teb, cri), 28).
request(27, (ryend, cri), 29).
request(28, (cimbl, cri), 10).
request(29, (dandy, cri), 5).
request(30, (jfk, cimbl), 29).
request(31, (lga, cimbl), 13).
request(32, (teb, cimbl), 20).
request(33, (ryend, cimbl), 22).
request(34, (cri, cimbl), 29).
request(35, (dandy, cimbl), 24).
request(36, (jfk, dandy), 21).
request(37, (lga, dandy), 28).
request(38, (teb, dandy), 12).
request(39, (ryend, dandy), 15).
request(40, (cri, dandy), 7).
request(41, (cimbl, dandy), 20).
