%[[0, 4, 14, 11, 19, 5, 7], [7, 0, 23, 22, 15, 4, 2], [11, 0, 0, 6, 3, 23, 15], [22, 9, 5, 0, 13, 15, 26], [22, 11, 19, 26, 0, 2, 12], [3, 8, 24, 28, 15, 0, 1], [22, 29, 22, 10, 23, 23, 0]]%request(ID, (edge), number of request passenger)
request(0, (lga, jfk), 7).
request(1, (teb, jfk), 11).
request(2, (ryend, jfk), 22).
request(3, (cri, jfk), 22).
request(4, (cimbl, jfk), 3).
request(5, (dandy, jfk), 22).
request(6, (jfk, lga), 4).
request(7, (teb, lga), 0).
request(8, (ryend, lga), 9).
request(9, (cri, lga), 11).
request(10, (cimbl, lga), 8).
request(11, (dandy, lga), 29).
request(12, (jfk, teb), 14).
request(13, (lga, teb), 23).
request(14, (ryend, teb), 5).
request(15, (cri, teb), 19).
request(16, (cimbl, teb), 24).
request(17, (dandy, teb), 22).
request(18, (jfk, ryend), 11).
request(19, (lga, ryend), 22).
request(20, (teb, ryend), 6).
request(21, (cri, ryend), 26).
request(22, (cimbl, ryend), 28).
request(23, (dandy, ryend), 10).
request(24, (jfk, cri), 19).
request(25, (lga, cri), 15).
request(26, (teb, cri), 3).
request(27, (ryend, cri), 13).
request(28, (cimbl, cri), 15).
request(29, (dandy, cri), 23).
request(30, (jfk, cimbl), 5).
request(31, (lga, cimbl), 4).
request(32, (teb, cimbl), 23).
request(33, (ryend, cimbl), 15).
request(34, (cri, cimbl), 2).
request(35, (dandy, cimbl), 23).
request(36, (jfk, dandy), 7).
request(37, (lga, dandy), 2).
request(38, (teb, dandy), 15).
request(39, (ryend, dandy), 26).
request(40, (cri, dandy), 12).
request(41, (cimbl, dandy), 1).
