%[[0, 14, 18, 13, 14, 1, 23], [24, 0, 16, 21, 27, 21, 29], [15, 29, 0, 21, 21, 28, 27], [22, 26, 11, 0, 3, 28, 22], [10, 29, 2, 24, 0, 8, 8], [15, 23, 27, 21, 11, 0, 19], [21, 15, 8, 13, 0, 12, 0]]%request(ID, (edge), number of request passenger)
request(0, (lga, jfk), 24).
request(1, (teb, jfk), 15).
request(2, (ryend, jfk), 22).
request(3, (cri, jfk), 10).
request(4, (cimbl, jfk), 15).
request(5, (dandy, jfk), 21).
request(6, (jfk, lga), 14).
request(7, (teb, lga), 29).
request(8, (ryend, lga), 26).
request(9, (cri, lga), 29).
request(10, (cimbl, lga), 23).
request(11, (dandy, lga), 15).
request(12, (jfk, teb), 18).
request(13, (lga, teb), 16).
request(14, (ryend, teb), 11).
request(15, (cri, teb), 2).
request(16, (cimbl, teb), 27).
request(17, (dandy, teb), 8).
request(18, (jfk, ryend), 13).
request(19, (lga, ryend), 21).
request(20, (teb, ryend), 21).
request(21, (cri, ryend), 24).
request(22, (cimbl, ryend), 21).
request(23, (dandy, ryend), 13).
request(24, (jfk, cri), 14).
request(25, (lga, cri), 27).
request(26, (teb, cri), 21).
request(27, (ryend, cri), 3).
request(28, (cimbl, cri), 11).
request(29, (dandy, cri), 0).
request(30, (jfk, cimbl), 1).
request(31, (lga, cimbl), 21).
request(32, (teb, cimbl), 28).
request(33, (ryend, cimbl), 28).
request(34, (cri, cimbl), 8).
request(35, (dandy, cimbl), 12).
request(36, (jfk, dandy), 23).
request(37, (lga, dandy), 29).
request(38, (teb, dandy), 27).
request(39, (ryend, dandy), 22).
request(40, (cri, dandy), 8).
request(41, (cimbl, dandy), 19).
