%[[0, 11, 14, 30, 12, 6, 29], [9, 0, 1, 13, 26, 7, 9], [9, 24, 0, 26, 14, 15, 7], [2, 10, 27, 0, 9, 7, 10], [25, 17, 1, 0, 0, 21, 13], [18, 28, 19, 25, 12, 0, 23], [7, 10, 17, 14, 0, 2, 0]]%request(ID, (edge), number of request passenger)
request(0, (lga, jfk), 9).
request(1, (teb, jfk), 9).
request(2, (ryend, jfk), 2).
request(3, (cri, jfk), 25).
request(4, (cimbl, jfk), 18).
request(5, (dandy, jfk), 7).
request(6, (jfk, lga), 11).
request(7, (teb, lga), 24).
request(8, (ryend, lga), 10).
request(9, (cri, lga), 17).
request(10, (cimbl, lga), 28).
request(11, (dandy, lga), 10).
request(12, (jfk, teb), 14).
request(13, (lga, teb), 1).
request(14, (ryend, teb), 27).
request(15, (cri, teb), 1).
request(16, (cimbl, teb), 19).
request(17, (dandy, teb), 17).
request(18, (jfk, ryend), 30).
request(19, (lga, ryend), 13).
request(20, (teb, ryend), 26).
request(21, (cri, ryend), 0).
request(22, (cimbl, ryend), 25).
request(23, (dandy, ryend), 14).
request(24, (jfk, cri), 12).
request(25, (lga, cri), 26).
request(26, (teb, cri), 14).
request(27, (ryend, cri), 9).
request(28, (cimbl, cri), 12).
request(29, (dandy, cri), 0).
request(30, (jfk, cimbl), 6).
request(31, (lga, cimbl), 7).
request(32, (teb, cimbl), 15).
request(33, (ryend, cimbl), 7).
request(34, (cri, cimbl), 21).
request(35, (dandy, cimbl), 2).
request(36, (jfk, dandy), 29).
request(37, (lga, dandy), 9).
request(38, (teb, dandy), 7).
request(39, (ryend, dandy), 10).
request(40, (cri, dandy), 13).
request(41, (cimbl, dandy), 23).
