%[[0, 12, 6, 10, 28, 5, 20], [0, 0, 16, 24, 22, 0, 27], [10, 21, 0, 14, 4, 7, 30], [3, 22, 4, 0, 19, 5, 14], [13, 10, 21, 13, 0, 4, 9], [5, 3, 14, 26, 27, 0, 10], [1, 4, 28, 30, 7, 14, 0]]%request(ID, (edge), number of request passenger)
request(0, (lga, jfk), 0).
request(1, (teb, jfk), 10).
request(2, (ryend, jfk), 3).
request(3, (cri, jfk), 13).
request(4, (cimbl, jfk), 5).
request(5, (dandy, jfk), 1).
request(6, (jfk, lga), 12).
request(7, (teb, lga), 21).
request(8, (ryend, lga), 22).
request(9, (cri, lga), 10).
request(10, (cimbl, lga), 3).
request(11, (dandy, lga), 4).
request(12, (jfk, teb), 6).
request(13, (lga, teb), 16).
request(14, (ryend, teb), 4).
request(15, (cri, teb), 21).
request(16, (cimbl, teb), 14).
request(17, (dandy, teb), 28).
request(18, (jfk, ryend), 10).
request(19, (lga, ryend), 24).
request(20, (teb, ryend), 14).
request(21, (cri, ryend), 13).
request(22, (cimbl, ryend), 26).
request(23, (dandy, ryend), 30).
request(24, (jfk, cri), 28).
request(25, (lga, cri), 22).
request(26, (teb, cri), 4).
request(27, (ryend, cri), 19).
request(28, (cimbl, cri), 27).
request(29, (dandy, cri), 7).
request(30, (jfk, cimbl), 5).
request(31, (lga, cimbl), 0).
request(32, (teb, cimbl), 7).
request(33, (ryend, cimbl), 5).
request(34, (cri, cimbl), 4).
request(35, (dandy, cimbl), 14).
request(36, (jfk, dandy), 20).
request(37, (lga, dandy), 27).
request(38, (teb, dandy), 30).
request(39, (ryend, dandy), 14).
request(40, (cri, dandy), 9).
request(41, (cimbl, dandy), 10).
