%[[0, 16, 26, 14, 10, 17, 17], [12, 0, 15, 26, 0, 5, 4], [14, 21, 0, 24, 26, 19, 0], [28, 10, 9, 0, 23, 11, 7], [9, 21, 4, 19, 0, 2, 6], [16, 24, 9, 28, 18, 0, 17], [30, 5, 27, 24, 22, 10, 0]]%request(ID, (edge), number of request passenger)
request(0, (lga, jfk), 12).
request(1, (teb, jfk), 14).
request(2, (ryend, jfk), 28).
request(3, (cri, jfk), 9).
request(4, (cimbl, jfk), 16).
request(5, (dandy, jfk), 30).
request(6, (jfk, lga), 16).
request(7, (teb, lga), 21).
request(8, (ryend, lga), 10).
request(9, (cri, lga), 21).
request(10, (cimbl, lga), 24).
request(11, (dandy, lga), 5).
request(12, (jfk, teb), 26).
request(13, (lga, teb), 15).
request(14, (ryend, teb), 9).
request(15, (cri, teb), 4).
request(16, (cimbl, teb), 9).
request(17, (dandy, teb), 27).
request(18, (jfk, ryend), 14).
request(19, (lga, ryend), 26).
request(20, (teb, ryend), 24).
request(21, (cri, ryend), 19).
request(22, (cimbl, ryend), 28).
request(23, (dandy, ryend), 24).
request(24, (jfk, cri), 10).
request(25, (lga, cri), 0).
request(26, (teb, cri), 26).
request(27, (ryend, cri), 23).
request(28, (cimbl, cri), 18).
request(29, (dandy, cri), 22).
request(30, (jfk, cimbl), 17).
request(31, (lga, cimbl), 5).
request(32, (teb, cimbl), 19).
request(33, (ryend, cimbl), 11).
request(34, (cri, cimbl), 2).
request(35, (dandy, cimbl), 10).
request(36, (jfk, dandy), 17).
request(37, (lga, dandy), 4).
request(38, (teb, dandy), 0).
request(39, (ryend, dandy), 7).
request(40, (cri, dandy), 6).
request(41, (cimbl, dandy), 17).
