%[[0, 2, 24, 19, 22, 8, 4], [11, 0, 27, 2, 4, 27, 13], [10, 28, 0, 6, 9, 22, 21], [10, 2, 18, 0, 27, 5, 14], [19, 0, 7, 4, 0, 18, 14], [27, 25, 1, 17, 10, 0, 23], [2, 2, 13, 15, 2, 12, 0]]%request(ID, (edge), number of request passenger)
request(0, (lga, jfk), 11).
request(1, (teb, jfk), 10).
request(2, (ryend, jfk), 10).
request(3, (cri, jfk), 19).
request(4, (cimbl, jfk), 27).
request(5, (dandy, jfk), 2).
request(6, (jfk, lga), 2).
request(7, (teb, lga), 28).
request(8, (ryend, lga), 2).
request(9, (cri, lga), 0).
request(10, (cimbl, lga), 25).
request(11, (dandy, lga), 2).
request(12, (jfk, teb), 24).
request(13, (lga, teb), 27).
request(14, (ryend, teb), 18).
request(15, (cri, teb), 7).
request(16, (cimbl, teb), 1).
request(17, (dandy, teb), 13).
request(18, (jfk, ryend), 19).
request(19, (lga, ryend), 2).
request(20, (teb, ryend), 6).
request(21, (cri, ryend), 4).
request(22, (cimbl, ryend), 17).
request(23, (dandy, ryend), 15).
request(24, (jfk, cri), 22).
request(25, (lga, cri), 4).
request(26, (teb, cri), 9).
request(27, (ryend, cri), 27).
request(28, (cimbl, cri), 10).
request(29, (dandy, cri), 2).
request(30, (jfk, cimbl), 8).
request(31, (lga, cimbl), 27).
request(32, (teb, cimbl), 22).
request(33, (ryend, cimbl), 5).
request(34, (cri, cimbl), 18).
request(35, (dandy, cimbl), 12).
request(36, (jfk, dandy), 4).
request(37, (lga, dandy), 13).
request(38, (teb, dandy), 21).
request(39, (ryend, dandy), 14).
request(40, (cri, dandy), 14).
request(41, (cimbl, dandy), 23).
