%[[0, 4, 23, 6, 28, 26, 26], [17, 0, 3, 8, 24, 10, 20], [17, 22, 0, 10, 28, 22, 29], [3, 28, 11, 0, 0, 8, 12], [24, 2, 26, 15, 0, 16, 19], [28, 22, 2, 24, 21, 0, 6], [8, 30, 5, 22, 17, 30, 0]]%request(ID, (edge), number of request passenger)
request(0, (lga, jfk), 17).
request(1, (teb, jfk), 17).
request(2, (ryend, jfk), 3).
request(3, (cri, jfk), 24).
request(4, (cimbl, jfk), 28).
request(5, (dandy, jfk), 8).
request(6, (jfk, lga), 4).
request(7, (teb, lga), 22).
request(8, (ryend, lga), 28).
request(9, (cri, lga), 2).
request(10, (cimbl, lga), 22).
request(11, (dandy, lga), 30).
request(12, (jfk, teb), 23).
request(13, (lga, teb), 3).
request(14, (ryend, teb), 11).
request(15, (cri, teb), 26).
request(16, (cimbl, teb), 2).
request(17, (dandy, teb), 5).
request(18, (jfk, ryend), 6).
request(19, (lga, ryend), 8).
request(20, (teb, ryend), 10).
request(21, (cri, ryend), 15).
request(22, (cimbl, ryend), 24).
request(23, (dandy, ryend), 22).
request(24, (jfk, cri), 28).
request(25, (lga, cri), 24).
request(26, (teb, cri), 28).
request(27, (ryend, cri), 0).
request(28, (cimbl, cri), 21).
request(29, (dandy, cri), 17).
request(30, (jfk, cimbl), 26).
request(31, (lga, cimbl), 10).
request(32, (teb, cimbl), 22).
request(33, (ryend, cimbl), 8).
request(34, (cri, cimbl), 16).
request(35, (dandy, cimbl), 30).
request(36, (jfk, dandy), 26).
request(37, (lga, dandy), 20).
request(38, (teb, dandy), 29).
request(39, (ryend, dandy), 12).
request(40, (cri, dandy), 19).
request(41, (cimbl, dandy), 6).
