%[[0, 7, 11, 30, 12, 4, 6], [22, 0, 1, 2, 4, 7, 25], [16, 6, 0, 12, 20, 0, 14], [15, 14, 12, 0, 15, 18, 6], [28, 26, 12, 2, 0, 15, 7], [24, 0, 22, 8, 16, 0, 13], [15, 28, 29, 12, 23, 3, 0]]%request(ID, (edge), number of request passenger)
request(0, (lga, jfk), 22).
request(1, (teb, jfk), 16).
request(2, (ryend, jfk), 15).
request(3, (cri, jfk), 28).
request(4, (cimbl, jfk), 24).
request(5, (dandy, jfk), 15).
request(6, (jfk, lga), 7).
request(7, (teb, lga), 6).
request(8, (ryend, lga), 14).
request(9, (cri, lga), 26).
request(10, (cimbl, lga), 0).
request(11, (dandy, lga), 28).
request(12, (jfk, teb), 11).
request(13, (lga, teb), 1).
request(14, (ryend, teb), 12).
request(15, (cri, teb), 12).
request(16, (cimbl, teb), 22).
request(17, (dandy, teb), 29).
request(18, (jfk, ryend), 30).
request(19, (lga, ryend), 2).
request(20, (teb, ryend), 12).
request(21, (cri, ryend), 2).
request(22, (cimbl, ryend), 8).
request(23, (dandy, ryend), 12).
request(24, (jfk, cri), 12).
request(25, (lga, cri), 4).
request(26, (teb, cri), 20).
request(27, (ryend, cri), 15).
request(28, (cimbl, cri), 16).
request(29, (dandy, cri), 23).
request(30, (jfk, cimbl), 4).
request(31, (lga, cimbl), 7).
request(32, (teb, cimbl), 0).
request(33, (ryend, cimbl), 18).
request(34, (cri, cimbl), 15).
request(35, (dandy, cimbl), 3).
request(36, (jfk, dandy), 6).
request(37, (lga, dandy), 25).
request(38, (teb, dandy), 14).
request(39, (ryend, dandy), 6).
request(40, (cri, dandy), 7).
request(41, (cimbl, dandy), 13).
