%[[0, 8, 12, 17, 28, 22, 27], [30, 0, 13, 11, 11, 17, 12], [11, 0, 0, 17, 24, 26, 30], [12, 29, 7, 0, 30, 19, 1], [12, 7, 5, 30, 0, 16, 18], [0, 4, 14, 19, 4, 0, 29], [5, 7, 11, 11, 18, 5, 0]]%request(ID, (edge), number of request passenger)
request(0, (lga, jfk), 30).
request(1, (teb, jfk), 11).
request(2, (ryend, jfk), 12).
request(3, (cri, jfk), 12).
request(4, (cimbl, jfk), 0).
request(5, (dandy, jfk), 5).
request(6, (jfk, lga), 8).
request(7, (teb, lga), 0).
request(8, (ryend, lga), 29).
request(9, (cri, lga), 7).
request(10, (cimbl, lga), 4).
request(11, (dandy, lga), 7).
request(12, (jfk, teb), 12).
request(13, (lga, teb), 13).
request(14, (ryend, teb), 7).
request(15, (cri, teb), 5).
request(16, (cimbl, teb), 14).
request(17, (dandy, teb), 11).
request(18, (jfk, ryend), 17).
request(19, (lga, ryend), 11).
request(20, (teb, ryend), 17).
request(21, (cri, ryend), 30).
request(22, (cimbl, ryend), 19).
request(23, (dandy, ryend), 11).
request(24, (jfk, cri), 28).
request(25, (lga, cri), 11).
request(26, (teb, cri), 24).
request(27, (ryend, cri), 30).
request(28, (cimbl, cri), 4).
request(29, (dandy, cri), 18).
request(30, (jfk, cimbl), 22).
request(31, (lga, cimbl), 17).
request(32, (teb, cimbl), 26).
request(33, (ryend, cimbl), 19).
request(34, (cri, cimbl), 16).
request(35, (dandy, cimbl), 5).
request(36, (jfk, dandy), 27).
request(37, (lga, dandy), 12).
request(38, (teb, dandy), 30).
request(39, (ryend, dandy), 1).
request(40, (cri, dandy), 18).
request(41, (cimbl, dandy), 29).
