%[[0, 25, 24, 0, 17, 26, 10], [23, 0, 0, 24, 2, 22, 16], [23, 20, 0, 9, 26, 23, 26], [12, 3, 28, 0, 27, 16, 3], [26, 13, 14, 0, 0, 18, 24], [24, 6, 6, 11, 1, 0, 25], [28, 27, 5, 12, 9, 28, 0]]%request(ID, (edge), number of request passenger)
request(0, (lga, jfk), 23).
request(1, (teb, jfk), 23).
request(2, (ryend, jfk), 12).
request(3, (cri, jfk), 26).
request(4, (cimbl, jfk), 24).
request(5, (dandy, jfk), 28).
request(6, (jfk, lga), 25).
request(7, (teb, lga), 20).
request(8, (ryend, lga), 3).
request(9, (cri, lga), 13).
request(10, (cimbl, lga), 6).
request(11, (dandy, lga), 27).
request(12, (jfk, teb), 24).
request(13, (lga, teb), 0).
request(14, (ryend, teb), 28).
request(15, (cri, teb), 14).
request(16, (cimbl, teb), 6).
request(17, (dandy, teb), 5).
request(18, (jfk, ryend), 0).
request(19, (lga, ryend), 24).
request(20, (teb, ryend), 9).
request(21, (cri, ryend), 0).
request(22, (cimbl, ryend), 11).
request(23, (dandy, ryend), 12).
request(24, (jfk, cri), 17).
request(25, (lga, cri), 2).
request(26, (teb, cri), 26).
request(27, (ryend, cri), 27).
request(28, (cimbl, cri), 1).
request(29, (dandy, cri), 9).
request(30, (jfk, cimbl), 26).
request(31, (lga, cimbl), 22).
request(32, (teb, cimbl), 23).
request(33, (ryend, cimbl), 16).
request(34, (cri, cimbl), 18).
request(35, (dandy, cimbl), 28).
request(36, (jfk, dandy), 10).
request(37, (lga, dandy), 16).
request(38, (teb, dandy), 26).
request(39, (ryend, dandy), 3).
request(40, (cri, dandy), 24).
request(41, (cimbl, dandy), 25).
