%[[0, 4, 24, 15, 16, 9, 26], [25, 0, 5, 25, 5, 21, 8], [5, 24, 0, 29, 1, 13, 15], [18, 26, 3, 0, 6, 9, 17], [26, 4, 3, 15, 0, 2, 20], [10, 25, 11, 24, 15, 0, 2], [15, 5, 26, 0, 7, 11, 0]]%request(ID, (edge), number of request passenger)
request(0, (lga, jfk), 25).
request(1, (teb, jfk), 5).
request(2, (ryend, jfk), 18).
request(3, (cri, jfk), 26).
request(4, (cimbl, jfk), 10).
request(5, (dandy, jfk), 15).
request(6, (jfk, lga), 4).
request(7, (teb, lga), 24).
request(8, (ryend, lga), 26).
request(9, (cri, lga), 4).
request(10, (cimbl, lga), 25).
request(11, (dandy, lga), 5).
request(12, (jfk, teb), 24).
request(13, (lga, teb), 5).
request(14, (ryend, teb), 3).
request(15, (cri, teb), 3).
request(16, (cimbl, teb), 11).
request(17, (dandy, teb), 26).
request(18, (jfk, ryend), 15).
request(19, (lga, ryend), 25).
request(20, (teb, ryend), 29).
request(21, (cri, ryend), 15).
request(22, (cimbl, ryend), 24).
request(23, (dandy, ryend), 0).
request(24, (jfk, cri), 16).
request(25, (lga, cri), 5).
request(26, (teb, cri), 1).
request(27, (ryend, cri), 6).
request(28, (cimbl, cri), 15).
request(29, (dandy, cri), 7).
request(30, (jfk, cimbl), 9).
request(31, (lga, cimbl), 21).
request(32, (teb, cimbl), 13).
request(33, (ryend, cimbl), 9).
request(34, (cri, cimbl), 2).
request(35, (dandy, cimbl), 11).
request(36, (jfk, dandy), 26).
request(37, (lga, dandy), 8).
request(38, (teb, dandy), 15).
request(39, (ryend, dandy), 17).
request(40, (cri, dandy), 20).
request(41, (cimbl, dandy), 2).
