%[[0, 6, 22, 19, 26, 3, 10], [28, 0, 30, 6, 7, 14, 24], [24, 27, 0, 29, 11, 18, 7], [21, 12, 17, 0, 27, 27, 17], [7, 24, 21, 18, 0, 19, 18], [14, 19, 13, 3, 0, 0, 21], [17, 2, 13, 15, 19, 21, 0]]%request(ID, (edge), number of request passenger)
request(0, (lga, jfk), 28).
request(1, (teb, jfk), 24).
request(2, (ryend, jfk), 21).
request(3, (cri, jfk), 7).
request(4, (cimbl, jfk), 14).
request(5, (dandy, jfk), 17).
request(6, (jfk, lga), 6).
request(7, (teb, lga), 27).
request(8, (ryend, lga), 12).
request(9, (cri, lga), 24).
request(10, (cimbl, lga), 19).
request(11, (dandy, lga), 2).
request(12, (jfk, teb), 22).
request(13, (lga, teb), 30).
request(14, (ryend, teb), 17).
request(15, (cri, teb), 21).
request(16, (cimbl, teb), 13).
request(17, (dandy, teb), 13).
request(18, (jfk, ryend), 19).
request(19, (lga, ryend), 6).
request(20, (teb, ryend), 29).
request(21, (cri, ryend), 18).
request(22, (cimbl, ryend), 3).
request(23, (dandy, ryend), 15).
request(24, (jfk, cri), 26).
request(25, (lga, cri), 7).
request(26, (teb, cri), 11).
request(27, (ryend, cri), 27).
request(28, (cimbl, cri), 0).
request(29, (dandy, cri), 19).
request(30, (jfk, cimbl), 3).
request(31, (lga, cimbl), 14).
request(32, (teb, cimbl), 18).
request(33, (ryend, cimbl), 27).
request(34, (cri, cimbl), 19).
request(35, (dandy, cimbl), 21).
request(36, (jfk, dandy), 10).
request(37, (lga, dandy), 24).
request(38, (teb, dandy), 7).
request(39, (ryend, dandy), 17).
request(40, (cri, dandy), 18).
request(41, (cimbl, dandy), 21).
