%[[0, 23, 9, 29, 24, 1, 15], [0, 0, 16, 21, 10, 26, 6], [14, 15, 0, 27, 17, 24, 23], [11, 19, 4, 0, 17, 30, 24], [22, 8, 16, 14, 0, 12, 28], [28, 23, 10, 19, 7, 0, 4], [21, 30, 15, 1, 16, 25, 0]]%request(ID, (edge), number of request passenger)
request(0, (lga, jfk), 0).
request(1, (teb, jfk), 14).
request(2, (ryend, jfk), 11).
request(3, (cri, jfk), 22).
request(4, (cimbl, jfk), 28).
request(5, (dandy, jfk), 21).
request(6, (jfk, lga), 23).
request(7, (teb, lga), 15).
request(8, (ryend, lga), 19).
request(9, (cri, lga), 8).
request(10, (cimbl, lga), 23).
request(11, (dandy, lga), 30).
request(12, (jfk, teb), 9).
request(13, (lga, teb), 16).
request(14, (ryend, teb), 4).
request(15, (cri, teb), 16).
request(16, (cimbl, teb), 10).
request(17, (dandy, teb), 15).
request(18, (jfk, ryend), 29).
request(19, (lga, ryend), 21).
request(20, (teb, ryend), 27).
request(21, (cri, ryend), 14).
request(22, (cimbl, ryend), 19).
request(23, (dandy, ryend), 1).
request(24, (jfk, cri), 24).
request(25, (lga, cri), 10).
request(26, (teb, cri), 17).
request(27, (ryend, cri), 17).
request(28, (cimbl, cri), 7).
request(29, (dandy, cri), 16).
request(30, (jfk, cimbl), 1).
request(31, (lga, cimbl), 26).
request(32, (teb, cimbl), 24).
request(33, (ryend, cimbl), 30).
request(34, (cri, cimbl), 12).
request(35, (dandy, cimbl), 25).
request(36, (jfk, dandy), 15).
request(37, (lga, dandy), 6).
request(38, (teb, dandy), 23).
request(39, (ryend, dandy), 24).
request(40, (cri, dandy), 28).
request(41, (cimbl, dandy), 4).
