%[[0, 15, 27, 27, 14, 2, 4], [12, 0, 1, 1, 30, 20, 6], [6, 5, 0, 9, 2, 26, 1], [13, 4, 11, 0, 9, 17, 25], [6, 15, 25, 20, 0, 22, 28], [29, 7, 26, 14, 30, 0, 5], [1, 25, 0, 0, 30, 24, 0]]%request(ID, (edge), number of request passenger)
request(0, (lga, jfk), 12).
request(1, (teb, jfk), 6).
request(2, (ryend, jfk), 13).
request(3, (cri, jfk), 6).
request(4, (cimbl, jfk), 29).
request(5, (dandy, jfk), 1).
request(6, (jfk, lga), 15).
request(7, (teb, lga), 5).
request(8, (ryend, lga), 4).
request(9, (cri, lga), 15).
request(10, (cimbl, lga), 7).
request(11, (dandy, lga), 25).
request(12, (jfk, teb), 27).
request(13, (lga, teb), 1).
request(14, (ryend, teb), 11).
request(15, (cri, teb), 25).
request(16, (cimbl, teb), 26).
request(17, (dandy, teb), 0).
request(18, (jfk, ryend), 27).
request(19, (lga, ryend), 1).
request(20, (teb, ryend), 9).
request(21, (cri, ryend), 20).
request(22, (cimbl, ryend), 14).
request(23, (dandy, ryend), 0).
request(24, (jfk, cri), 14).
request(25, (lga, cri), 30).
request(26, (teb, cri), 2).
request(27, (ryend, cri), 9).
request(28, (cimbl, cri), 30).
request(29, (dandy, cri), 30).
request(30, (jfk, cimbl), 2).
request(31, (lga, cimbl), 20).
request(32, (teb, cimbl), 26).
request(33, (ryend, cimbl), 17).
request(34, (cri, cimbl), 22).
request(35, (dandy, cimbl), 24).
request(36, (jfk, dandy), 4).
request(37, (lga, dandy), 6).
request(38, (teb, dandy), 1).
request(39, (ryend, dandy), 25).
request(40, (cri, dandy), 28).
request(41, (cimbl, dandy), 5).
