%[[0, 6, 13, 25, 11, 29, 26], [26, 0, 25, 1, 18, 0, 17], [24, 1, 0, 0, 28, 23, 26], [8, 11, 0, 0, 2, 20, 14], [15, 21, 3, 26, 0, 10, 7], [28, 9, 5, 8, 24, 0, 13], [17, 6, 5, 27, 3, 7, 0]]%request(ID, (edge), number of request passenger)
request(0, (lga, jfk), 26).
request(1, (teb, jfk), 24).
request(2, (ryend, jfk), 8).
request(3, (cri, jfk), 15).
request(4, (cimbl, jfk), 28).
request(5, (dandy, jfk), 17).
request(6, (jfk, lga), 6).
request(7, (teb, lga), 1).
request(8, (ryend, lga), 11).
request(9, (cri, lga), 21).
request(10, (cimbl, lga), 9).
request(11, (dandy, lga), 6).
request(12, (jfk, teb), 13).
request(13, (lga, teb), 25).
request(14, (ryend, teb), 0).
request(15, (cri, teb), 3).
request(16, (cimbl, teb), 5).
request(17, (dandy, teb), 5).
request(18, (jfk, ryend), 25).
request(19, (lga, ryend), 1).
request(20, (teb, ryend), 0).
request(21, (cri, ryend), 26).
request(22, (cimbl, ryend), 8).
request(23, (dandy, ryend), 27).
request(24, (jfk, cri), 11).
request(25, (lga, cri), 18).
request(26, (teb, cri), 28).
request(27, (ryend, cri), 2).
request(28, (cimbl, cri), 24).
request(29, (dandy, cri), 3).
request(30, (jfk, cimbl), 29).
request(31, (lga, cimbl), 0).
request(32, (teb, cimbl), 23).
request(33, (ryend, cimbl), 20).
request(34, (cri, cimbl), 10).
request(35, (dandy, cimbl), 7).
request(36, (jfk, dandy), 26).
request(37, (lga, dandy), 17).
request(38, (teb, dandy), 26).
request(39, (ryend, dandy), 14).
request(40, (cri, dandy), 7).
request(41, (cimbl, dandy), 13).
