%[[0, 13, 16, 18, 17, 17, 25], [18, 0, 8, 25, 25, 30, 28], [21, 24, 0, 25, 3, 18, 16], [15, 5, 26, 0, 26, 2, 18], [21, 20, 10, 1, 0, 1, 27], [0, 20, 28, 20, 25, 0, 5], [27, 18, 5, 19, 19, 5, 0]]%request(ID, (edge), number of request passenger)
request(0, (lga, jfk), 18).
request(1, (teb, jfk), 21).
request(2, (ryend, jfk), 15).
request(3, (cri, jfk), 21).
request(4, (cimbl, jfk), 0).
request(5, (dandy, jfk), 27).
request(6, (jfk, lga), 13).
request(7, (teb, lga), 24).
request(8, (ryend, lga), 5).
request(9, (cri, lga), 20).
request(10, (cimbl, lga), 20).
request(11, (dandy, lga), 18).
request(12, (jfk, teb), 16).
request(13, (lga, teb), 8).
request(14, (ryend, teb), 26).
request(15, (cri, teb), 10).
request(16, (cimbl, teb), 28).
request(17, (dandy, teb), 5).
request(18, (jfk, ryend), 18).
request(19, (lga, ryend), 25).
request(20, (teb, ryend), 25).
request(21, (cri, ryend), 1).
request(22, (cimbl, ryend), 20).
request(23, (dandy, ryend), 19).
request(24, (jfk, cri), 17).
request(25, (lga, cri), 25).
request(26, (teb, cri), 3).
request(27, (ryend, cri), 26).
request(28, (cimbl, cri), 25).
request(29, (dandy, cri), 19).
request(30, (jfk, cimbl), 17).
request(31, (lga, cimbl), 30).
request(32, (teb, cimbl), 18).
request(33, (ryend, cimbl), 2).
request(34, (cri, cimbl), 1).
request(35, (dandy, cimbl), 5).
request(36, (jfk, dandy), 25).
request(37, (lga, dandy), 28).
request(38, (teb, dandy), 16).
request(39, (ryend, dandy), 18).
request(40, (cri, dandy), 27).
request(41, (cimbl, dandy), 5).
