%[[0, 17, 5, 3, 26, 8, 9], [13, 0, 27, 0, 21, 15, 11], [30, 9, 0, 13, 19, 26, 8], [30, 17, 0, 0, 13, 0, 23], [13, 11, 30, 29, 0, 14, 11], [25, 6, 21, 23, 1, 0, 13], [14, 26, 20, 26, 5, 8, 0]]%request(ID, (edge), number of request passenger)
request(0, (lga, jfk), 13).
request(1, (teb, jfk), 30).
request(2, (ryend, jfk), 30).
request(3, (cri, jfk), 13).
request(4, (cimbl, jfk), 25).
request(5, (dandy, jfk), 14).
request(6, (jfk, lga), 17).
request(7, (teb, lga), 9).
request(8, (ryend, lga), 17).
request(9, (cri, lga), 11).
request(10, (cimbl, lga), 6).
request(11, (dandy, lga), 26).
request(12, (jfk, teb), 5).
request(13, (lga, teb), 27).
request(14, (ryend, teb), 0).
request(15, (cri, teb), 30).
request(16, (cimbl, teb), 21).
request(17, (dandy, teb), 20).
request(18, (jfk, ryend), 3).
request(19, (lga, ryend), 0).
request(20, (teb, ryend), 13).
request(21, (cri, ryend), 29).
request(22, (cimbl, ryend), 23).
request(23, (dandy, ryend), 26).
request(24, (jfk, cri), 26).
request(25, (lga, cri), 21).
request(26, (teb, cri), 19).
request(27, (ryend, cri), 13).
request(28, (cimbl, cri), 1).
request(29, (dandy, cri), 5).
request(30, (jfk, cimbl), 8).
request(31, (lga, cimbl), 15).
request(32, (teb, cimbl), 26).
request(33, (ryend, cimbl), 0).
request(34, (cri, cimbl), 14).
request(35, (dandy, cimbl), 8).
request(36, (jfk, dandy), 9).
request(37, (lga, dandy), 11).
request(38, (teb, dandy), 8).
request(39, (ryend, dandy), 23).
request(40, (cri, dandy), 11).
request(41, (cimbl, dandy), 13).
