%[[0, 11, 18, 26, 1, 11, 13], [1, 0, 15, 9, 23, 26, 21], [17, 2, 0, 25, 15, 29, 6], [12, 1, 20, 0, 25, 22, 24], [11, 0, 24, 24, 0, 25, 28], [0, 24, 12, 24, 9, 0, 10], [1, 20, 23, 22, 27, 15, 0]]%request(ID, (edge), number of request passenger)
request(0, (lga, jfk), 1).
request(1, (teb, jfk), 17).
request(2, (ryend, jfk), 12).
request(3, (cri, jfk), 11).
request(4, (cimbl, jfk), 0).
request(5, (dandy, jfk), 1).
request(6, (jfk, lga), 11).
request(7, (teb, lga), 2).
request(8, (ryend, lga), 1).
request(9, (cri, lga), 0).
request(10, (cimbl, lga), 24).
request(11, (dandy, lga), 20).
request(12, (jfk, teb), 18).
request(13, (lga, teb), 15).
request(14, (ryend, teb), 20).
request(15, (cri, teb), 24).
request(16, (cimbl, teb), 12).
request(17, (dandy, teb), 23).
request(18, (jfk, ryend), 26).
request(19, (lga, ryend), 9).
request(20, (teb, ryend), 25).
request(21, (cri, ryend), 24).
request(22, (cimbl, ryend), 24).
request(23, (dandy, ryend), 22).
request(24, (jfk, cri), 1).
request(25, (lga, cri), 23).
request(26, (teb, cri), 15).
request(27, (ryend, cri), 25).
request(28, (cimbl, cri), 9).
request(29, (dandy, cri), 27).
request(30, (jfk, cimbl), 11).
request(31, (lga, cimbl), 26).
request(32, (teb, cimbl), 29).
request(33, (ryend, cimbl), 22).
request(34, (cri, cimbl), 25).
request(35, (dandy, cimbl), 15).
request(36, (jfk, dandy), 13).
request(37, (lga, dandy), 21).
request(38, (teb, dandy), 6).
request(39, (ryend, dandy), 24).
request(40, (cri, dandy), 28).
request(41, (cimbl, dandy), 10).
