%[[0, 24, 17, 16, 23, 17, 25], [29, 0, 27, 4, 30, 15, 0], [4, 25, 0, 0, 19, 2, 20], [8, 25, 6, 0, 1, 18, 23], [16, 19, 6, 20, 0, 20, 3], [11, 8, 23, 25, 12, 0, 11], [4, 5, 5, 12, 30, 10, 0]]%request(ID, (edge), number of request passenger)
request(0, (lga, jfk), 29).
request(1, (teb, jfk), 4).
request(2, (ryend, jfk), 8).
request(3, (cri, jfk), 16).
request(4, (cimbl, jfk), 11).
request(5, (dandy, jfk), 4).
request(6, (jfk, lga), 24).
request(7, (teb, lga), 25).
request(8, (ryend, lga), 25).
request(9, (cri, lga), 19).
request(10, (cimbl, lga), 8).
request(11, (dandy, lga), 5).
request(12, (jfk, teb), 17).
request(13, (lga, teb), 27).
request(14, (ryend, teb), 6).
request(15, (cri, teb), 6).
request(16, (cimbl, teb), 23).
request(17, (dandy, teb), 5).
request(18, (jfk, ryend), 16).
request(19, (lga, ryend), 4).
request(20, (teb, ryend), 0).
request(21, (cri, ryend), 20).
request(22, (cimbl, ryend), 25).
request(23, (dandy, ryend), 12).
request(24, (jfk, cri), 23).
request(25, (lga, cri), 30).
request(26, (teb, cri), 19).
request(27, (ryend, cri), 1).
request(28, (cimbl, cri), 12).
request(29, (dandy, cri), 30).
request(30, (jfk, cimbl), 17).
request(31, (lga, cimbl), 15).
request(32, (teb, cimbl), 2).
request(33, (ryend, cimbl), 18).
request(34, (cri, cimbl), 20).
request(35, (dandy, cimbl), 10).
request(36, (jfk, dandy), 25).
request(37, (lga, dandy), 0).
request(38, (teb, dandy), 20).
request(39, (ryend, dandy), 23).
request(40, (cri, dandy), 3).
request(41, (cimbl, dandy), 11).
