%[[0, 6, 22, 2, 15, 21, 18], [18, 0, 9, 20, 28, 11, 25], [14, 18, 0, 28, 26, 9, 8], [15, 8, 11, 0, 2, 17, 23], [4, 1, 21, 20, 0, 30, 27], [12, 11, 14, 25, 3, 0, 4], [17, 24, 16, 5, 1, 21, 0]]%request(ID, (edge), number of request passenger)
request(0, (lga, jfk), 18).
request(1, (teb, jfk), 14).
request(2, (ryend, jfk), 15).
request(3, (cri, jfk), 4).
request(4, (cimbl, jfk), 12).
request(5, (dandy, jfk), 17).
request(6, (jfk, lga), 6).
request(7, (teb, lga), 18).
request(8, (ryend, lga), 8).
request(9, (cri, lga), 1).
request(10, (cimbl, lga), 11).
request(11, (dandy, lga), 24).
request(12, (jfk, teb), 22).
request(13, (lga, teb), 9).
request(14, (ryend, teb), 11).
request(15, (cri, teb), 21).
request(16, (cimbl, teb), 14).
request(17, (dandy, teb), 16).
request(18, (jfk, ryend), 2).
request(19, (lga, ryend), 20).
request(20, (teb, ryend), 28).
request(21, (cri, ryend), 20).
request(22, (cimbl, ryend), 25).
request(23, (dandy, ryend), 5).
request(24, (jfk, cri), 15).
request(25, (lga, cri), 28).
request(26, (teb, cri), 26).
request(27, (ryend, cri), 2).
request(28, (cimbl, cri), 3).
request(29, (dandy, cri), 1).
request(30, (jfk, cimbl), 21).
request(31, (lga, cimbl), 11).
request(32, (teb, cimbl), 9).
request(33, (ryend, cimbl), 17).
request(34, (cri, cimbl), 30).
request(35, (dandy, cimbl), 21).
request(36, (jfk, dandy), 18).
request(37, (lga, dandy), 25).
request(38, (teb, dandy), 8).
request(39, (ryend, dandy), 23).
request(40, (cri, dandy), 27).
request(41, (cimbl, dandy), 4).
