%[[0, 2, 18, 5, 30, 21, 21], [5, 0, 12, 30, 14, 27, 25], [23, 14, 0, 14, 14, 26, 8], [7, 6, 19, 0, 26, 11, 25], [15, 6, 30, 25, 0, 6, 12], [24, 2, 24, 26, 2, 0, 25], [21, 14, 22, 17, 20, 9, 0]]%request(ID, (edge), number of request passenger)
request(0, (lga, jfk), 5).
request(1, (teb, jfk), 23).
request(2, (ryend, jfk), 7).
request(3, (cri, jfk), 15).
request(4, (cimbl, jfk), 24).
request(5, (dandy, jfk), 21).
request(6, (jfk, lga), 2).
request(7, (teb, lga), 14).
request(8, (ryend, lga), 6).
request(9, (cri, lga), 6).
request(10, (cimbl, lga), 2).
request(11, (dandy, lga), 14).
request(12, (jfk, teb), 18).
request(13, (lga, teb), 12).
request(14, (ryend, teb), 19).
request(15, (cri, teb), 30).
request(16, (cimbl, teb), 24).
request(17, (dandy, teb), 22).
request(18, (jfk, ryend), 5).
request(19, (lga, ryend), 30).
request(20, (teb, ryend), 14).
request(21, (cri, ryend), 25).
request(22, (cimbl, ryend), 26).
request(23, (dandy, ryend), 17).
request(24, (jfk, cri), 30).
request(25, (lga, cri), 14).
request(26, (teb, cri), 14).
request(27, (ryend, cri), 26).
request(28, (cimbl, cri), 2).
request(29, (dandy, cri), 20).
request(30, (jfk, cimbl), 21).
request(31, (lga, cimbl), 27).
request(32, (teb, cimbl), 26).
request(33, (ryend, cimbl), 11).
request(34, (cri, cimbl), 6).
request(35, (dandy, cimbl), 9).
request(36, (jfk, dandy), 21).
request(37, (lga, dandy), 25).
request(38, (teb, dandy), 8).
request(39, (ryend, dandy), 25).
request(40, (cri, dandy), 12).
request(41, (cimbl, dandy), 25).
