%[[0, 29, 27, 15, 29, 18, 23], [11, 0, 28, 3, 2, 11, 4], [5, 12, 0, 3, 25, 5, 18], [1, 19, 17, 0, 28, 3, 21], [19, 26, 11, 12, 0, 29, 3], [20, 2, 24, 29, 20, 0, 6], [24, 7, 30, 20, 15, 5, 0]]%request(ID, (edge), number of request passenger)
request(0, (lga, jfk), 11).
request(1, (teb, jfk), 5).
request(2, (ryend, jfk), 1).
request(3, (cri, jfk), 19).
request(4, (cimbl, jfk), 20).
request(5, (dandy, jfk), 24).
request(6, (jfk, lga), 29).
request(7, (teb, lga), 12).
request(8, (ryend, lga), 19).
request(9, (cri, lga), 26).
request(10, (cimbl, lga), 2).
request(11, (dandy, lga), 7).
request(12, (jfk, teb), 27).
request(13, (lga, teb), 28).
request(14, (ryend, teb), 17).
request(15, (cri, teb), 11).
request(16, (cimbl, teb), 24).
request(17, (dandy, teb), 30).
request(18, (jfk, ryend), 15).
request(19, (lga, ryend), 3).
request(20, (teb, ryend), 3).
request(21, (cri, ryend), 12).
request(22, (cimbl, ryend), 29).
request(23, (dandy, ryend), 20).
request(24, (jfk, cri), 29).
request(25, (lga, cri), 2).
request(26, (teb, cri), 25).
request(27, (ryend, cri), 28).
request(28, (cimbl, cri), 20).
request(29, (dandy, cri), 15).
request(30, (jfk, cimbl), 18).
request(31, (lga, cimbl), 11).
request(32, (teb, cimbl), 5).
request(33, (ryend, cimbl), 3).
request(34, (cri, cimbl), 29).
request(35, (dandy, cimbl), 5).
request(36, (jfk, dandy), 23).
request(37, (lga, dandy), 4).
request(38, (teb, dandy), 18).
request(39, (ryend, dandy), 21).
request(40, (cri, dandy), 3).
request(41, (cimbl, dandy), 6).
