%[[0, 14, 19, 11, 8, 4, 5], [27, 0, 21, 0, 10, 16, 14], [28, 19, 0, 2, 10, 17, 29], [19, 22, 1, 0, 23, 12, 5], [22, 30, 14, 30, 0, 23, 13], [5, 5, 7, 1, 3, 0, 4], [16, 27, 29, 18, 2, 24, 0]]%request(ID, (edge), number of request passenger)
request(0, (lga, jfk), 27).
request(1, (teb, jfk), 28).
request(2, (ryend, jfk), 19).
request(3, (cri, jfk), 22).
request(4, (cimbl, jfk), 5).
request(5, (dandy, jfk), 16).
request(6, (jfk, lga), 14).
request(7, (teb, lga), 19).
request(8, (ryend, lga), 22).
request(9, (cri, lga), 30).
request(10, (cimbl, lga), 5).
request(11, (dandy, lga), 27).
request(12, (jfk, teb), 19).
request(13, (lga, teb), 21).
request(14, (ryend, teb), 1).
request(15, (cri, teb), 14).
request(16, (cimbl, teb), 7).
request(17, (dandy, teb), 29).
request(18, (jfk, ryend), 11).
request(19, (lga, ryend), 0).
request(20, (teb, ryend), 2).
request(21, (cri, ryend), 30).
request(22, (cimbl, ryend), 1).
request(23, (dandy, ryend), 18).
request(24, (jfk, cri), 8).
request(25, (lga, cri), 10).
request(26, (teb, cri), 10).
request(27, (ryend, cri), 23).
request(28, (cimbl, cri), 3).
request(29, (dandy, cri), 2).
request(30, (jfk, cimbl), 4).
request(31, (lga, cimbl), 16).
request(32, (teb, cimbl), 17).
request(33, (ryend, cimbl), 12).
request(34, (cri, cimbl), 23).
request(35, (dandy, cimbl), 24).
request(36, (jfk, dandy), 5).
request(37, (lga, dandy), 14).
request(38, (teb, dandy), 29).
request(39, (ryend, dandy), 5).
request(40, (cri, dandy), 13).
request(41, (cimbl, dandy), 4).
