%[[0, 11, 10, 29, 21, 12, 29], [6, 0, 3, 26, 10, 24, 1], [22, 28, 0, 0, 5, 13, 20], [10, 2, 8, 0, 10, 11, 8], [4, 16, 25, 0, 0, 27, 18], [15, 17, 15, 14, 10, 0, 7], [22, 26, 11, 16, 29, 30, 0]]%request(ID, (edge), number of request passenger)
request(0, (lga, jfk), 6).
request(1, (teb, jfk), 22).
request(2, (ryend, jfk), 10).
request(3, (cri, jfk), 4).
request(4, (cimbl, jfk), 15).
request(5, (dandy, jfk), 22).
request(6, (jfk, lga), 11).
request(7, (teb, lga), 28).
request(8, (ryend, lga), 2).
request(9, (cri, lga), 16).
request(10, (cimbl, lga), 17).
request(11, (dandy, lga), 26).
request(12, (jfk, teb), 10).
request(13, (lga, teb), 3).
request(14, (ryend, teb), 8).
request(15, (cri, teb), 25).
request(16, (cimbl, teb), 15).
request(17, (dandy, teb), 11).
request(18, (jfk, ryend), 29).
request(19, (lga, ryend), 26).
request(20, (teb, ryend), 0).
request(21, (cri, ryend), 0).
request(22, (cimbl, ryend), 14).
request(23, (dandy, ryend), 16).
request(24, (jfk, cri), 21).
request(25, (lga, cri), 10).
request(26, (teb, cri), 5).
request(27, (ryend, cri), 10).
request(28, (cimbl, cri), 10).
request(29, (dandy, cri), 29).
request(30, (jfk, cimbl), 12).
request(31, (lga, cimbl), 24).
request(32, (teb, cimbl), 13).
request(33, (ryend, cimbl), 11).
request(34, (cri, cimbl), 27).
request(35, (dandy, cimbl), 30).
request(36, (jfk, dandy), 29).
request(37, (lga, dandy), 1).
request(38, (teb, dandy), 20).
request(39, (ryend, dandy), 8).
request(40, (cri, dandy), 18).
request(41, (cimbl, dandy), 7).
