%[[0, 12, 12, 6, 19, 5, 7], [7, 0, 4, 24, 2, 8, 23], [12, 16, 0, 21, 22, 17, 2], [30, 19, 15, 0, 6, 13, 23], [19, 18, 6, 25, 0, 28, 25], [11, 26, 12, 27, 21, 0, 6], [4, 14, 21, 5, 27, 18, 0]]%request(ID, (edge), number of request passenger)
request(0, (lga, jfk), 7).
request(1, (teb, jfk), 12).
request(2, (ryend, jfk), 30).
request(3, (cri, jfk), 19).
request(4, (cimbl, jfk), 11).
request(5, (dandy, jfk), 4).
request(6, (jfk, lga), 12).
request(7, (teb, lga), 16).
request(8, (ryend, lga), 19).
request(9, (cri, lga), 18).
request(10, (cimbl, lga), 26).
request(11, (dandy, lga), 14).
request(12, (jfk, teb), 12).
request(13, (lga, teb), 4).
request(14, (ryend, teb), 15).
request(15, (cri, teb), 6).
request(16, (cimbl, teb), 12).
request(17, (dandy, teb), 21).
request(18, (jfk, ryend), 6).
request(19, (lga, ryend), 24).
request(20, (teb, ryend), 21).
request(21, (cri, ryend), 25).
request(22, (cimbl, ryend), 27).
request(23, (dandy, ryend), 5).
request(24, (jfk, cri), 19).
request(25, (lga, cri), 2).
request(26, (teb, cri), 22).
request(27, (ryend, cri), 6).
request(28, (cimbl, cri), 21).
request(29, (dandy, cri), 27).
request(30, (jfk, cimbl), 5).
request(31, (lga, cimbl), 8).
request(32, (teb, cimbl), 17).
request(33, (ryend, cimbl), 13).
request(34, (cri, cimbl), 28).
request(35, (dandy, cimbl), 18).
request(36, (jfk, dandy), 7).
request(37, (lga, dandy), 23).
request(38, (teb, dandy), 2).
request(39, (ryend, dandy), 23).
request(40, (cri, dandy), 25).
request(41, (cimbl, dandy), 6).
