request(0, (lga, jfk), 12).
request(1, (teb, jfk), 24).
request(2, (ryend, jfk), 28).
request(3, (cri, jfk), 13).
request(4, (cimbl, jfk), 1).
request(5, (dandy, jfk), 8).
request(6, (jfk, lga), 30).
request(7, (teb, lga), 15).
request(8, (ryend, lga), 12).
request(9, (cri, lga), 29).
request(10, (cimbl, lga), 25).
request(11, (dandy, lga), 26).
request(12, (jfk, teb), 9).
request(13, (lga, teb), 30).
request(14, (ryend, teb), 11).
request(15, (cri, teb), 18).
request(16, (cimbl, teb), 28).
request(17, (dandy, teb), 29).
request(18, (jfk, ryend), 6).
request(19, (lga, ryend), 16).
request(20, (teb, ryend), 4).
request(21, (cri, ryend), 4).
request(22, (cimbl, ryend), 24).
request(23, (dandy, ryend), 3).
request(24, (jfk, cri), 19).
request(25, (lga, cri), 25).
request(26, (teb, cri), 8).
request(27, (ryend, cri), 29).
request(28, (cimbl, cri), 22).
request(29, (dandy, cri), 25).
request(30, (jfk, cimbl), 19).
request(31, (lga, cimbl), 28).
request(32, (teb, cimbl), 4).
request(33, (ryend, cimbl), 9).
request(34, (cri, cimbl), 3).
request(35, (dandy, cimbl), 2).
request(36, (jfk, dandy), 28).
request(37, (lga, dandy), 27).
request(38, (teb, dandy), 21).
request(39, (ryend, dandy), 10).
request(40, (cri, dandy), 15).
request(41, (cimbl, dandy), 17).