out(0,(lga,cri),4,0).
in(0,(lga,cri),4,6).
out(0,(cri,ryend),8,16).
in(0,(cri,ryend),8,24).
out(0,(ryend,dandy),9,40).
in(0,(ryend,dandy),9,44).
out(0,(dandy,cri),11,54).
in(0,(dandy,cri),11,64).
out(0,(cri,ryend),14,84).
in(0,(cri,ryend),14,92).
out(0,(ryend,cimbl),15,109).
in(0,(ryend,cimbl),15,114).
out(0,(cimbl,ryend),17,120).
in(0,(cimbl,ryend),17,125).
out(0,(ryend,lga),18,131).
in(0,(ryend,lga),18,140).
out(0,(lga,ryend),19,153).
in(0,(lga,ryend),19,162).
out(1,(cri,teb),2,0).
in(1,(cri,teb),2,10).
out(1,(teb,ryend),3,25).
in(1,(teb,ryend),3,32).
out(1,(ryend,teb),4,44).
in(1,(ryend,teb),4,51).
out(1,(teb,jfk),5,61).
in(1,(teb,jfk),5,72).
out(1,(jfk,cimbl),6,90).
in(1,(jfk,cimbl),6,98).
out(1,(cimbl,lga),8,111).
in(1,(cimbl,lga),8,115).
out(1,(lga,cri),9,121).
in(1,(lga,cri),9,127).
out(1,(cri,dandy),10,137).
in(1,(cri,dandy),10,147).
out(1,(dandy,lga),16,162).
in(1,(dandy,lga),16,170).
out(1,(lga,ryend),17,183).
in(1,(lga,ryend),17,192).
out(1,(ryend,teb),19,206).
in(1,(ryend,teb),19,213).
out(1,(teb,dandy),20,224).
in(1,(teb,dandy),20,228).
out(1,(dandy,cri),21,234).
in(1,(dandy,cri),21,244).
out(2,(dandy,jfk),1,4).
in(2,(dandy,jfk),1,16).
out(2,(jfk,ryend),7,33).
in(2,(jfk,ryend),7,44).
out(2,(ryend,teb),8,60).
in(2,(ryend,teb),8,67).
out(2,(teb,cri),11,78).
in(2,(teb,cri),11,88).
out(2,(cri,dandy),13,103).
in(2,(cri,dandy),13,113).
out(2,(dandy,teb),14,128).
in(2,(dandy,teb),14,132).
out(2,(teb,cimbl),16,139).
in(2,(teb,cimbl),16,143).
out(2,(cimbl,jfk),17,165).
in(2,(cimbl,jfk),17,173).
out(2,(jfk,teb),18,181).
in(2,(jfk,teb),18,192).
out(2,(teb,cimbl),19,216).
in(2,(teb,cimbl),19,220).
out(2,(cimbl,ryend),21,236).
in(2,(cimbl,ryend),21,241).
out(3,(dandy,cimbl),1,0).
in(3,(dandy,cimbl),1,4).
out(3,(cimbl,cri),7,26).
in(3,(cimbl,cri),7,32).
out(3,(cri,dandy),8,32).
in(3,(cri,dandy),8,42).
out(3,(dandy,lga),9,51).
in(3,(dandy,lga),9,59).
out(3,(lga,dandy),10,72).
in(3,(lga,dandy),10,80).
out(3,(dandy,cri),11,93).
in(3,(dandy,cri),11,103).
out(3,(cri,lga),14,131).
in(3,(cri,lga),14,137).
out(3,(lga,dandy),16,162).
in(3,(lga,dandy),16,170).
out(3,(dandy,cimbl),17,172).
in(3,(dandy,cimbl),17,176).
out(3,(cimbl,ryend),18,181).
in(3,(cimbl,ryend),18,186).
out(3,(ryend,dandy),19,190).
in(3,(ryend,dandy),19,194).
out(4,(dandy,ryend),1,0).
in(4,(dandy,ryend),1,4).
out(4,(ryend,teb),4,20).
in(4,(ryend,teb),4,27).
out(4,(teb,jfk),5,28).
in(4,(teb,jfk),5,39).
out(4,(jfk,cimbl),7,57).
in(4,(jfk,cimbl),7,65).
out(4,(cimbl,teb),9,78).
in(4,(cimbl,teb),9,82).
out(4,(teb,cri),11,94).
in(4,(teb,cri),11,104).
out(4,(cri,teb),12,119).
in(4,(cri,teb),12,129).
out(4,(teb,cri),13,138).
in(4,(teb,cri),13,148).
out(4,(cri,cimbl),14,196).
in(4,(cri,cimbl),14,202).
out(4,(cimbl,lga),16,205).
in(4,(cimbl,lga),16,209).
out(4,(lga,cimbl),18,209).
in(4,(lga,cimbl),18,213).
out(4,(cimbl,jfk),19,218).
in(4,(cimbl,jfk),19,226).
out(4,(jfk,cimbl),21,229).
in(4,(jfk,cimbl),21,237).
out(5,(jfk,teb),7,16).
in(5,(jfk,teb),7,27).
out(5,(teb,cimbl),8,36).
in(5,(teb,cimbl),8,40).
out(5,(cimbl,lga),12,40).
in(5,(cimbl,lga),12,44).
out(5,(lga,cimbl),18,60).
in(5,(lga,cimbl),18,64).
out(5,(cimbl,jfk),19,64).
in(5,(cimbl,jfk),19,72).
out(5,(jfk,cri),20,87).
in(5,(jfk,cri),20,90).
out(5,(cri,lga),21,180).
in(5,(cri,lga),21,186).
out(6,(teb,cri),6,6).
in(6,(teb,cri),6,16).
out(6,(cri,jfk),8,32).
in(6,(cri,jfk),8,35).
out(6,(jfk,ryend),10,49).
in(6,(jfk,ryend),10,60).
out(6,(ryend,cimbl),11,76).
in(6,(ryend,cimbl),11,81).
out(6,(cimbl,jfk),17,81).
in(6,(cimbl,jfk),17,89).
out(6,(jfk,dandy),18,97).
in(6,(jfk,dandy),18,109).
out(6,(dandy,ryend),20,128).
in(6,(dandy,ryend),20,132).
out(7,(jfk,lga),1,0).
in(7,(jfk,lga),1,6).
out(7,(lga,dandy),2,16).
in(7,(lga,dandy),2,24).
out(7,(dandy,ryend),4,44).
in(7,(dandy,ryend),4,48).
out(7,(ryend,cimbl),11,64).
in(7,(ryend,cimbl),11,69).
out(7,(cimbl,lga),14,80).
in(7,(cimbl,lga),14,84).
out(7,(lga,dandy),16,121).
in(7,(lga,dandy),16,129).
out(8,(ryend,lga),1,0).
in(8,(ryend,lga),1,9).
out(8,(lga,jfk),3,23).
in(8,(lga,jfk),3,29).
out(8,(jfk,ryend),4,65).
in(8,(jfk,ryend),4,76).
out(8,(ryend,jfk),7,92).
in(8,(ryend,jfk),7,103).
out(8,(jfk,ryend),9,105).
in(8,(jfk,ryend),9,116).
out(8,(ryend,jfk),11,130).
in(8,(ryend,jfk),11,141).
out(8,(jfk,lga),12,187).
in(8,(jfk,lga),12,193).
out(8,(lga,cri),14,199).
in(8,(lga,cri),14,205).
out(8,(cri,jfk),15,205).
in(8,(cri,jfk),15,208).
out(8,(jfk,teb),16,213).
in(8,(jfk,teb),16,224).
out(8,(teb,dandy),18,229).
in(8,(teb,dandy),18,233).
out(8,(dandy,lga),20,249).
in(8,(dandy,lga),20,257).
out(8,(lga,cimbl),21,271).
in(8,(lga,cimbl),21,275).
out(9,(dandy,jfk),1,4).
in(9,(dandy,jfk),1,16).
out(9,(jfk,cimbl),2,45).
in(9,(jfk,cimbl),2,53).
out(9,(cimbl,cri),3,129).
in(9,(cimbl,cri),3,135).
out(9,(cri,cimbl),14,143).
in(9,(cri,cimbl),14,149).
out(9,(cimbl,ryend),15,149).
in(9,(cimbl,ryend),15,154).
out(9,(ryend,lga),16,206).
in(9,(ryend,lga),16,215).
out(9,(lga,teb),17,217).
in(9,(lga,teb),17,222).
out(9,(teb,jfk),19,232).
in(9,(teb,jfk),19,243).
out(10,(ryend,jfk),3,8).
in(10,(ryend,jfk),3,19).
out(10,(jfk,cri),5,71).
in(10,(jfk,cri),5,74).
out(10,(cri,teb),14,80).
in(10,(cri,teb),14,90).
out(10,(teb,jfk),15,95).
in(10,(teb,jfk),15,106).
out(10,(jfk,cimbl),16,119).
in(10,(jfk,cimbl),16,127).
out(10,(cimbl,ryend),21,128).
in(10,(cimbl,ryend),21,133).
out(10,(ryend,cri),22,143).
in(10,(ryend,cri),22,151).
out(11,(ryend,lga),2,16).
in(11,(ryend,lga),2,25).
out(11,(lga,teb),3,36).
in(11,(lga,teb),3,41).
out(11,(teb,lga),4,63).
in(11,(teb,lga),4,68).
out(11,(lga,cimbl),6,92).
in(11,(lga,cimbl),6,96).
out(11,(cimbl,teb),12,97).
in(11,(cimbl,teb),12,101).
out(12,(cimbl,dandy),1,28).
in(12,(cimbl,dandy),1,32).
out(12,(dandy,ryend),2,60).
in(12,(dandy,ryend),2,64).
out(12,(ryend,dandy),3,80).
in(12,(ryend,dandy),3,84).
out(12,(dandy,jfk),4,97).
in(12,(dandy,jfk),4,109).
out(12,(jfk,ryend),5,135).
in(12,(jfk,ryend),5,146).
out(12,(ryend,cri),6,151).
in(12,(ryend,cri),6,159).
out(12,(cri,ryend),7,164).
in(12,(cri,ryend),7,172).
out(12,(ryend,jfk),9,172).
in(12,(ryend,jfk),9,183).
out(12,(jfk,teb),11,189).
in(12,(jfk,teb),11,200).
out(12,(teb,dandy),12,202).
in(12,(teb,dandy),12,206).
out(12,(dandy,cri),16,211).
in(12,(dandy,cri),16,221).
out(12,(cri,lga),17,237).
in(12,(cri,lga),17,243).
out(12,(lga,dandy),19,265).
in(12,(lga,dandy),19,273).
out(13,(ryend,dandy),1,12).
in(13,(ryend,dandy),1,16).
out(13,(dandy,teb),2,16).
in(13,(dandy,teb),2,20).
out(13,(teb,lga),3,43).
in(13,(teb,lga),3,48).
out(13,(lga,ryend),6,75).
in(13,(lga,ryend),6,84).
out(13,(ryend,lga),7,96).
in(13,(ryend,lga),7,105).
out(13,(lga,ryend),9,105).
in(13,(lga,ryend),9,114).
out(13,(ryend,jfk),11,147).
in(13,(ryend,jfk),11,158).
out(13,(jfk,teb),12,158).
in(13,(jfk,teb),12,169).
out(13,(teb,ryend),13,169).
in(13,(teb,ryend),13,176).
out(13,(ryend,teb),14,179).
in(13,(ryend,teb),14,186).
out(13,(teb,cri),15,197).
in(13,(teb,cri),15,207).
out(13,(cri,teb),16,228).
in(13,(cri,teb),16,238).
out(13,(teb,dandy),17,247).
in(13,(teb,dandy),17,251).
out(13,(dandy,lga),18,265).
in(13,(dandy,lga),18,273).
out(14,(dandy,cimbl),2,0).
in(14,(dandy,cimbl),2,4).
out(14,(cimbl,lga),8,16).
in(14,(cimbl,lga),8,20).
out(14,(lga,cri),9,38).
in(14,(lga,cri),9,44).
out(14,(cri,lga),10,58).
in(14,(cri,lga),10,64).
out(14,(lga,jfk),13,114).
in(14,(lga,jfk),13,120).
out(14,(jfk,lga),14,124).
in(14,(jfk,lga),14,130).
out(14,(lga,jfk),16,131).
in(14,(lga,jfk),16,137).
out(15,(lga,cri),1,10).
in(15,(lga,cri),1,16).
out(15,(cri,cimbl),4,36).
in(15,(cri,cimbl),4,42).
out(15,(cimbl,cri),5,58).
in(15,(cimbl,cri),5,64).
out(15,(cri,cimbl),7,153).
in(15,(cri,cimbl),7,159).
out(15,(cimbl,cri),9,165).
in(15,(cimbl,cri),9,171).
out(15,(cri,lga),10,171).
in(15,(cri,lga),10,177).
out(15,(lga,dandy),11,177).
in(15,(lga,dandy),11,185).
out(15,(dandy,jfk),13,185).
in(15,(dandy,jfk),13,197).
out(15,(jfk,ryend),14,211).
in(15,(jfk,ryend),14,222).
out(16,(jfk,teb),1,48).
in(16,(jfk,teb),1,59).
out(16,(teb,cimbl),3,108).
in(16,(teb,cimbl),3,112).
out(16,(cimbl,teb),5,130).
in(16,(cimbl,teb),5,134).
out(16,(teb,dandy),6,145).
in(16,(teb,dandy),6,149).
out(16,(dandy,cri),9,165).
in(16,(dandy,cri),9,175).
out(16,(cri,lga),10,187).
in(16,(cri,lga),10,193).
out(16,(lga,jfk),13,218).
in(16,(lga,jfk),13,224).
out(16,(jfk,cri),17,227).
in(16,(jfk,cri),17,230).
out(16,(cri,teb),18,231).
in(16,(cri,teb),18,241).
out(16,(teb,jfk),19,248).
in(16,(teb,jfk),19,259).
out(17,(ryend,lga),3,28).
in(17,(ryend,lga),3,37).
out(17,(lga,cimbl),4,137).
in(17,(lga,cimbl),4,141).
out(17,(cimbl,lga),6,149).
in(17,(cimbl,lga),6,153).
out(17,(lga,cri),7,185).
in(17,(lga,cri),7,191).
out(17,(cri,cimbl),9,215).
in(17,(cri,cimbl),9,221).
out(17,(cimbl,dandy),13,229).
in(17,(cimbl,dandy),13,233).
out(17,(dandy,jfk),14,233).
in(17,(dandy,jfk),14,245).
out(17,(jfk,cri),15,245).
in(17,(jfk,cri),15,248).
out(17,(cri,ryend),16,248).
in(17,(cri,ryend),16,256).
out(17,(ryend,teb),18,256).
in(17,(ryend,teb),18,263).
out(17,(teb,cimbl),19,273).
in(17,(teb,cimbl),19,277).
out(18,(jfk,cimbl),3,0).
in(18,(jfk,cimbl),3,8).
out(18,(cimbl,lga),5,94).
in(18,(cimbl,lga),5,98).
out(18,(lga,teb),6,98).
in(18,(lga,teb),6,103).
out(18,(teb,jfk),7,110).
in(18,(teb,jfk),7,121).
out(18,(jfk,teb),8,137).
in(18,(jfk,teb),8,148).
out(18,(teb,dandy),9,150).
in(18,(teb,dandy),9,154).
out(18,(dandy,ryend),10,163).
in(18,(dandy,ryend),10,167).
out(18,(ryend,cri),11,222).
in(18,(ryend,cri),11,230).
out(18,(cri,jfk),12,246).
in(18,(cri,jfk),12,249).
out(18,(jfk,cri),17,258).
in(18,(jfk,cri),17,261).
out(18,(cri,jfk),20,261).
in(18,(cri,jfk),20,264).
out(19,(dandy,jfk),1,20).
in(19,(dandy,jfk),1,32).
out(19,(jfk,dandy),2,51).
in(19,(jfk,dandy),2,63).
out(19,(dandy,jfk),4,69).
in(19,(dandy,jfk),4,81).
out(19,(jfk,dandy),5,166).
in(19,(jfk,dandy),5,178).
out(19,(dandy,lga),6,193).
in(19,(dandy,lga),6,201).
out(19,(lga,jfk),7,202).
in(19,(lga,jfk),7,208).
out(19,(jfk,cimbl),9,275).
in(19,(jfk,cimbl),9,283).
out(19,(cimbl,teb),10,291).
in(19,(cimbl,teb),10,295).
out(19,(teb,cri),13,296).
in(19,(teb,cri),13,306).
out(19,(cri,ryend),14,306).
in(19,(cri,ryend),14,314).
out(19,(ryend,dandy),15,349).
in(19,(ryend,dandy),15,353).
out(20,(ryend,dandy),4,12).
in(20,(ryend,dandy),4,16).
out(20,(dandy,cri),7,38).
in(20,(dandy,cri),7,48).
out(20,(cri,dandy),8,48).
in(20,(cri,dandy),8,58).
out(20,(dandy,ryend),12,94).
in(20,(dandy,ryend),12,98).
out(20,(ryend,cimbl),14,188).
in(20,(ryend,cimbl),14,193).
out(20,(cimbl,jfk),18,234).
in(20,(cimbl,jfk),18,242).
out(20,(jfk,cri),19,265).
in(20,(jfk,cri),19,268).
out(21,(cri,jfk),1,0).
in(21,(cri,jfk),1,3).
out(21,(jfk,lga),2,73).
in(21,(jfk,lga),2,79).
out(21,(lga,dandy),3,80).
in(21,(lga,dandy),3,88).
out(21,(dandy,lga),5,100).
in(21,(dandy,lga),5,108).
out(21,(lga,teb),7,149).
in(21,(lga,teb),7,154).
out(21,(teb,jfk),10,155).
in(21,(teb,jfk),10,166).
out(21,(jfk,ryend),12,274).
in(21,(jfk,ryend),12,285).
out(21,(ryend,jfk),15,285).
in(21,(ryend,jfk),15,296).
out(21,(jfk,ryend),18,296).
in(21,(jfk,ryend),18,307).
out(22,(jfk,cri),1,0).
in(22,(jfk,cri),1,3).
out(22,(cri,ryend),2,20).
in(22,(cri,ryend),2,28).
out(22,(ryend,cri),3,68).
in(22,(ryend,cri),3,76).
out(22,(cri,dandy),4,94).
in(22,(cri,dandy),4,104).
out(22,(dandy,cri),5,140).
in(22,(dandy,cri),5,150).
out(22,(cri,teb),6,166).
in(22,(cri,teb),6,176).
out(22,(teb,jfk),9,176).
in(22,(teb,jfk),9,187).
out(22,(jfk,dandy),11,199).
in(22,(jfk,dandy),11,211).
out(22,(dandy,cimbl),12,310).
in(22,(dandy,cimbl),12,314).
out(22,(cimbl,dandy),13,315).
in(22,(cimbl,dandy),13,319).
out(22,(dandy,teb),19,321).
in(22,(dandy,teb),19,325).
out(22,(teb,dandy),20,349).
in(22,(teb,dandy),20,353).
out(23,(cimbl,cri),1,42).
in(23,(cimbl,cri),1,48).
out(23,(cri,dandy),2,64).
in(23,(cri,dandy),2,74).
out(23,(dandy,teb),5,74).
in(23,(dandy,teb),5,78).
out(23,(teb,lga),6,119).
in(23,(teb,lga),6,124).
out(23,(lga,cimbl),7,165).
in(23,(lga,cimbl),7,169).
out(23,(cimbl,cri),9,176).
in(23,(cimbl,cri),9,182).
out(23,(cri,teb),10,289).
in(23,(cri,teb),10,299).
out(23,(teb,ryend),12,301).
in(23,(teb,ryend),12,308).
out(23,(ryend,dandy),14,323).
in(23,(ryend,dandy),14,327).
out(23,(dandy,cri),15,335).
in(23,(dandy,cri),15,345).
out(23,(cri,cimbl),16,345).
in(23,(cri,cimbl),16,351).
out(23,(cimbl,teb),17,351).
in(23,(cimbl,teb),17,355).
out(24,(teb,cimbl),1,0).
in(24,(teb,cimbl),1,4).
out(24,(cimbl,jfk),3,85).
in(24,(cimbl,jfk),3,93).
out(24,(jfk,dandy),5,125).
in(24,(jfk,dandy),5,137).
out(24,(dandy,ryend),6,156).
in(24,(dandy,ryend),6,160).
out(24,(ryend,cimbl),9,200).
in(24,(ryend,cimbl),9,205).
out(24,(cimbl,dandy),15,240).
in(24,(cimbl,dandy),15,244).
out(24,(dandy,cimbl),18,249).
in(24,(dandy,cimbl),18,253).
out(24,(cimbl,ryend),19,253).
in(24,(cimbl,ryend),19,258).
out(24,(ryend,cri),20,258).
in(24,(ryend,cri),20,266).
out(24,(cri,teb),21,276).
in(24,(cri,teb),21,286).
out(25,(cimbl,teb),1,0).
in(25,(cimbl,teb),1,4).
out(25,(teb,lga),2,47).
in(25,(teb,lga),2,52).
out(25,(lga,teb),3,156).
in(25,(lga,teb),3,161).
out(25,(teb,ryend),4,201).
in(25,(teb,ryend),4,208).
out(25,(ryend,cimbl),5,216).
in(25,(ryend,cimbl),5,221).
out(25,(cimbl,teb),6,245).
in(25,(cimbl,teb),6,249).
out(25,(teb,lga),8,302).
in(25,(teb,lga),8,307).
out(25,(lga,ryend),11,307).
in(25,(lga,ryend),11,316).
out(25,(ryend,cri),13,317).
in(25,(ryend,cri),13,325).
out(25,(cri,cimbl),14,325).
in(25,(cri,cimbl),14,331).
out(25,(cimbl,jfk),17,331).
in(25,(cimbl,jfk),17,339).
out(25,(jfk,lga),18,339).
in(25,(jfk,lga),18,345).
out(25,(lga,ryend),19,368).
in(25,(lga,ryend),19,377).
out(26,(lga,cri),1,54).
in(26,(lga,cri),1,60).
out(26,(cri,ryend),3,106).
in(26,(cri,ryend),3,114).
out(26,(ryend,teb),4,114).
in(26,(ryend,teb),4,121).
out(26,(teb,cimbl),5,185).
in(26,(teb,cimbl),5,189).
out(26,(cimbl,dandy),6,189).
in(26,(cimbl,dandy),6,193).
out(26,(dandy,cimbl),8,249).
in(26,(dandy,cimbl),8,253).
out(26,(cimbl,lga),14,274).
in(26,(cimbl,lga),14,278).
out(26,(lga,cri),17,278).
in(26,(lga,cri),17,284).
out(26,(cri,dandy),19,300).
in(26,(cri,dandy),19,310).
out(26,(dandy,teb),20,337).
in(26,(dandy,teb),20,341).
out(26,(teb,lga),21,341).
in(26,(teb,lga),21,346).
out(26,(lga,cimbl),22,346).
in(26,(lga,cimbl),22,350).
out(27,(cri,ryend),1,28).
in(27,(cri,ryend),1,36).
out(27,(ryend,teb),2,52).
in(27,(ryend,teb),2,59).
out(27,(teb,cri),4,177).
in(27,(teb,cri),4,187).
out(27,(cri,cimbl),5,198).
in(27,(cri,cimbl),5,204).
out(27,(cimbl,dandy),8,256).
in(27,(cimbl,dandy),8,260).
out(27,(dandy,teb),10,265).
in(27,(dandy,teb),10,269).
out(27,(teb,lga),11,283).
in(27,(teb,lga),11,288).
out(27,(lga,ryend),12,288).
in(27,(lga,ryend),12,297).
out(27,(ryend,jfk),17,301).
in(27,(ryend,jfk),17,312).
out(27,(jfk,cri),18,312).
in(27,(jfk,cri),18,315).
out(27,(cri,jfk),21,315).
in(27,(cri,jfk),21,318).
out(28,(jfk,cimbl),2,151).
in(28,(jfk,cimbl),2,159).
out(28,(cimbl,ryend),6,261).
in(28,(cimbl,ryend),6,266).
out(28,(ryend,dandy),7,272).
in(28,(ryend,dandy),7,276).
out(28,(dandy,teb),8,276).
in(28,(dandy,teb),8,280).
out(28,(teb,ryend),10,285).
in(28,(teb,ryend),10,292).
out(28,(ryend,cimbl),11,292).
in(28,(ryend,cimbl),11,297).
out(28,(cimbl,jfk),13,306).
in(28,(cimbl,jfk),13,314).
out(28,(jfk,dandy),14,331).
in(28,(jfk,dandy),14,343).
out(28,(dandy,teb),15,351).
in(28,(dandy,teb),15,355).
out(28,(teb,ryend),16,357).
in(28,(teb,ryend),16,364).
out(28,(ryend,cri),17,364).
in(28,(ryend,cri),17,372).
out(28,(cri,lga),21,372).
in(28,(cri,lga),21,378).
out(29,(teb,ryend),1,75).
in(29,(teb,ryend),1,82).
out(29,(ryend,cimbl),10,272).
in(29,(ryend,cimbl),10,277).
out(29,(cimbl,dandy),11,290).
in(29,(cimbl,dandy),11,294).
out(29,(dandy,lga),14,294).
in(29,(dandy,lga),14,302).
out(29,(lga,dandy),15,313).
in(29,(lga,dandy),15,321).
out(29,(dandy,lga),16,326).
in(29,(dandy,lga),16,334).
out(29,(lga,ryend),17,334).
in(29,(lga,ryend),17,343).
out(29,(ryend,lga),18,343).
in(29,(ryend,lga),18,352).
out(29,(lga,cimbl),21,352).
in(29,(lga,cimbl),21,356).
out(30,(cimbl,cri),3,104).
in(30,(cimbl,cri),3,110).
out(30,(cri,dandy),4,134).
in(30,(cri,dandy),4,144).
out(30,(dandy,ryend),5,201).
in(30,(dandy,ryend),5,205).
out(30,(ryend,lga),7,221).
in(30,(ryend,lga),7,230).
out(30,(lga,teb),10,249).
in(30,(lga,teb),10,254).
out(30,(teb,lga),11,257).
in(30,(teb,lga),11,262).
out(30,(lga,teb),14,262).
in(30,(lga,teb),14,267).
out(30,(teb,cri),19,270).
in(30,(teb,cri),19,280).
out(31,(cri,jfk),2,0).
in(31,(cri,jfk),2,3).
out(31,(jfk,lga),4,140).
in(31,(jfk,lga),4,146).
out(31,(lga,jfk),5,225).
in(31,(lga,jfk),5,231).
out(31,(jfk,dandy),6,277).
in(31,(jfk,dandy),6,289).
out(31,(dandy,cimbl),11,289).
in(31,(dandy,cimbl),11,293).
out(31,(cimbl,dandy),12,299).
in(31,(cimbl,dandy),12,303).
out(31,(dandy,cimbl),16,305).
in(31,(dandy,cimbl),16,309).
out(31,(cimbl,teb),20,309).
in(31,(cimbl,teb),20,313).
out(31,(teb,dandy),21,333).
in(31,(teb,dandy),21,337).
out(32,(cimbl,cri),1,113).
in(32,(cimbl,cri),1,119).
out(32,(cri,jfk),8,212).
in(32,(cri,jfk),8,215).
out(32,(jfk,lga),9,283).
in(32,(jfk,lga),9,289).
out(32,(lga,jfk),10,294).
in(32,(lga,jfk),10,300).
out(32,(jfk,teb),12,300).
in(32,(jfk,teb),12,311).
out(32,(teb,cimbl),13,318).
in(32,(teb,cimbl),13,322).
out(32,(cimbl,ryend),20,325).
in(32,(cimbl,ryend),20,330).
out(32,(ryend,cri),21,330).
in(32,(ryend,cri),21,338).
out(32,(cri,lga),22,355).
in(32,(cri,lga),22,361).
out(33,(lga,jfk),6,255).
in(33,(lga,jfk),6,261).
out(33,(jfk,dandy),7,293).
in(33,(jfk,dandy),7,305).
out(33,(dandy,jfk),9,342).
in(33,(dandy,jfk),9,354).
out(33,(jfk,lga),12,356).
in(33,(jfk,lga),12,362).
out(33,(lga,teb),13,362).
in(33,(lga,teb),13,367).
out(33,(teb,ryend),14,367).
in(33,(teb,ryend),14,374).
out(33,(ryend,jfk),15,374).
in(33,(ryend,jfk),15,385).
