next(0,0,lga).
next(1,0,cri).
next(2,0,dandy).
next(3,0,dandy).
next(4,0,dandy).
next(5,0,jfk).
next(6,0,teb).
next(7,0,jfk).
next(8,0,ryend).
next(9,0,dandy).
next(10,0,ryend).
next(11,0,ryend).
next(12,0,cimbl).
next(13,0,ryend).
next(14,0,dandy).
next(15,0,lga).
next(16,0,jfk).
next(17,0,ryend).
next(18,0,jfk).
next(19,0,dandy).
next(20,0,ryend).
next(21,0,cri).
next(22,0,jfk).
next(23,0,cimbl).
next(24,0,teb).
next(25,0,cimbl).
next(26,0,lga).
next(27,0,cri).
next(28,0,jfk).
next(29,0,teb).
next(30,0,cimbl).
next(31,0,cri).
next(32,0,cimbl).
next(33,0,lga).
next(33,1,lga).
next(32,1,cri).
next(31,1,cri).
next(30,1,cimbl).
next(29,1,ryend).
next(28,1,jfk).
next(27,1,ryend).
next(26,1,cri).
next(25,1,teb).
next(24,1,cimbl).
next(23,1,cri).
next(22,1,cri).
next(21,1,jfk).
next(20,1,ryend).
next(19,1,jfk).
next(18,1,jfk).
next(17,1,ryend).
next(16,1,teb).
next(15,1,cri).
next(14,1,dandy).
next(13,1,dandy).
next(12,1,dandy).
next(11,1,ryend).
next(10,1,ryend).
next(9,1,jfk).
next(8,1,lga).
next(7,1,lga).
next(6,1,teb).
next(5,1,jfk).
next(4,1,ryend).
next(3,1,cimbl).
next(2,1,jfk).
next(1,1,cri).
next(0,1,lga).
next(33,2,lga).
next(32,2,cri).
next(31,2,jfk).
next(30,2,cimbl).
next(29,2,ryend).
next(28,2,cimbl).
next(27,2,teb).
next(26,2,cri).
next(25,2,lga).
next(24,2,cimbl).
next(23,2,dandy).
next(22,2,ryend).
next(21,2,lga).
next(20,2,ryend).
next(19,2,dandy).
next(18,2,jfk).
next(17,2,ryend).
next(16,2,teb).
next(15,2,cri).
next(14,2,cimbl).
next(13,2,teb).
next(12,2,ryend).
next(11,2,lga).
next(10,2,ryend).
next(9,2,cimbl).
next(8,2,lga).
next(7,2,dandy).
next(6,2,teb).
next(5,2,jfk).
next(4,2,ryend).
next(3,2,cimbl).
next(2,2,jfk).
next(1,2,teb).
next(0,2,lga).
next(33,3,lga).
next(32,3,cri).
next(31,3,jfk).
next(30,3,cri).
next(29,3,ryend).
next(28,3,cimbl).
next(27,3,teb).
next(26,3,ryend).
next(25,3,teb).
next(24,3,jfk).
next(23,3,dandy).
next(22,3,cri).
next(21,3,dandy).
next(20,3,ryend).
next(19,3,dandy).
next(18,3,cimbl).
next(17,3,lga).
next(16,3,cimbl).
next(15,3,cri).
next(14,3,cimbl).
next(13,3,lga).
next(12,3,dandy).
next(11,3,teb).
next(10,3,jfk).
next(9,3,cri).
next(8,3,jfk).
next(7,3,dandy).
next(6,3,teb).
next(5,3,jfk).
next(4,3,ryend).
next(3,3,cimbl).
next(2,3,jfk).
next(1,3,ryend).
next(0,3,lga).
next(33,4,lga).
next(32,4,cri).
next(31,4,lga).
next(30,4,dandy).
next(29,4,ryend).
next(28,4,cimbl).
next(27,4,cri).
next(26,4,teb).
next(25,4,ryend).
next(24,4,jfk).
next(23,4,dandy).
next(22,4,dandy).
next(21,4,dandy).
next(20,4,dandy).
next(19,4,jfk).
next(18,4,cimbl).
next(17,4,cimbl).
next(16,4,cimbl).
next(15,4,cimbl).
next(14,4,cimbl).
next(13,4,lga).
next(12,4,jfk).
next(11,4,lga).
next(10,4,jfk).
next(9,4,cri).
next(8,4,ryend).
next(7,4,ryend).
next(6,4,teb).
next(5,4,jfk).
next(4,4,teb).
next(3,4,cimbl).
next(2,4,jfk).
next(1,4,teb).
next(0,4,cri).
next(33,5,lga).
next(32,5,cri).
next(31,5,jfk).
next(30,5,ryend).
next(29,5,ryend).
next(28,5,cimbl).
next(27,5,cimbl).
next(26,5,cimbl).
next(25,5,cimbl).
next(24,5,dandy).
next(23,5,teb).
next(22,5,cri).
next(21,5,lga).
next(20,5,dandy).
next(19,5,dandy).
next(18,5,lga).
next(17,5,cimbl).
next(16,5,teb).
next(15,5,cri).
next(14,5,cimbl).
next(13,5,lga).
next(12,5,ryend).
next(11,5,lga).
next(10,5,cri).
next(9,5,cri).
next(8,5,ryend).
next(7,5,ryend).
next(6,5,teb).
next(5,5,jfk).
next(4,5,jfk).
next(3,5,cimbl).
next(2,5,jfk).
next(1,5,jfk).
next(0,5,cri).
next(33,6,jfk).
next(32,6,cri).
next(31,6,dandy).
next(30,6,ryend).
next(29,6,ryend).
next(28,6,ryend).
next(27,6,cimbl).
next(26,6,dandy).
next(25,6,teb).
next(24,6,ryend).
next(23,6,lga).
next(22,6,teb).
next(21,6,lga).
next(20,6,dandy).
next(19,6,lga).
next(18,6,teb).
next(17,6,lga).
next(16,6,dandy).
next(15,6,cri).
next(14,6,cimbl).
next(13,6,ryend).
next(12,6,cri).
next(11,6,cimbl).
next(10,6,cri).
next(9,6,cri).
next(8,6,ryend).
next(7,6,ryend).
next(6,6,cri).
next(5,6,jfk).
next(4,6,jfk).
next(3,6,cimbl).
next(2,6,jfk).
next(1,6,cimbl).
next(0,6,cri).
next(33,7,dandy).
next(32,7,cri).
next(31,7,dandy).
next(30,7,lga).
next(29,7,ryend).
next(28,7,dandy).
next(27,7,cimbl).
next(26,7,dandy).
next(25,7,teb).
next(24,7,ryend).
next(23,7,cimbl).
next(22,7,teb).
next(21,7,teb).
next(20,7,cri).
next(19,7,jfk).
next(18,7,jfk).
next(17,7,cri).
next(16,7,dandy).
next(15,7,cimbl).
next(14,7,cimbl).
next(13,7,lga).
next(12,7,ryend).
next(11,7,cimbl).
next(10,7,cri).
next(9,7,cri).
next(8,7,jfk).
next(7,7,ryend).
next(6,7,cri).
next(5,7,teb).
next(4,7,cimbl).
next(3,7,cri).
next(2,7,ryend).
next(1,7,cimbl).
next(0,7,cri).
next(33,8,dandy).
next(32,8,jfk).
next(31,8,dandy).
next(30,8,lga).
next(29,8,ryend).
next(28,8,teb).
next(27,8,dandy).
next(26,8,cimbl).
next(25,8,lga).
next(24,8,ryend).
next(23,8,cimbl).
next(22,8,teb).
next(21,8,teb).
next(20,8,dandy).
next(19,8,jfk).
next(18,8,teb).
next(17,8,cri).
next(16,8,dandy).
next(15,8,cimbl).
next(14,8,lga).
next(13,8,lga).
next(12,8,ryend).
next(11,8,cimbl).
next(10,8,cri).
next(9,8,cri).
next(8,8,jfk).
next(7,8,ryend).
next(6,8,jfk).
next(5,8,cimbl).
next(4,8,cimbl).
next(3,8,dandy).
next(2,8,teb).
next(1,8,lga).
next(0,8,ryend).
next(33,9,jfk).
next(32,9,lga).
next(31,9,dandy).
next(30,9,lga).
next(29,9,ryend).
next(28,9,teb).
next(27,9,dandy).
next(26,9,cimbl).
next(25,9,lga).
next(24,9,cimbl).
next(23,9,cri).
next(22,9,jfk).
next(21,9,teb).
next(20,9,dandy).
next(19,9,cimbl).
next(18,9,dandy).
next(17,9,cimbl).
next(16,9,cri).
next(15,9,cri).
next(14,9,cri).
next(13,9,ryend).
next(12,9,jfk).
next(11,9,cimbl).
next(10,9,cri).
next(9,9,cri).
next(8,9,ryend).
next(7,9,ryend).
next(6,9,jfk).
next(5,9,cimbl).
next(4,9,teb).
next(3,9,lga).
next(2,9,teb).
next(1,9,cri).
next(0,9,dandy).
next(33,10,jfk).
next(32,10,jfk).
next(31,10,dandy).
next(30,10,teb).
next(29,10,cimbl).
next(28,10,ryend).
next(27,10,teb).
next(26,10,cimbl).
next(25,10,lga).
next(24,10,cimbl).
next(23,10,teb).
next(22,10,jfk).
next(21,10,jfk).
next(20,10,dandy).
next(19,10,teb).
next(18,10,ryend).
next(17,10,cimbl).
next(16,10,lga).
next(15,10,lga).
next(14,10,lga).
next(13,10,ryend).
next(12,10,jfk).
next(11,10,cimbl).
next(10,10,cri).
next(9,10,cri).
next(8,10,ryend).
next(7,10,ryend).
next(6,10,ryend).
next(5,10,cimbl).
next(4,10,teb).
next(3,10,dandy).
next(2,10,teb).
next(1,10,dandy).
next(0,10,dandy).
next(33,11,jfk).
next(32,11,jfk).
next(31,11,cimbl).
next(30,11,lga).
next(29,11,dandy).
next(28,11,cimbl).
next(27,11,lga).
next(26,11,cimbl).
next(25,11,ryend).
next(24,11,cimbl).
next(23,11,teb).
next(22,11,dandy).
next(21,11,jfk).
next(20,11,dandy).
next(19,11,teb).
next(18,11,cri).
next(17,11,cimbl).
next(16,11,lga).
next(15,11,dandy).
next(14,11,lga).
next(13,11,jfk).
next(12,11,teb).
next(11,11,cimbl).
next(10,11,cri).
next(9,11,cri).
next(8,11,jfk).
next(7,11,cimbl).
next(6,11,cimbl).
next(5,11,cimbl).
next(4,11,cri).
next(3,11,cri).
next(2,11,cri).
next(1,11,dandy).
next(0,11,cri).
next(33,12,lga).
next(32,12,teb).
next(31,12,dandy).
next(30,12,lga).
next(29,12,dandy).
next(28,12,cimbl).
next(27,12,ryend).
next(26,12,cimbl).
next(25,12,ryend).
next(24,12,cimbl).
next(23,12,ryend).
next(22,12,cimbl).
next(21,12,ryend).
next(20,12,ryend).
next(19,12,teb).
next(18,12,jfk).
next(17,12,cimbl).
next(16,12,lga).
next(15,12,dandy).
next(14,12,lga).
next(13,12,teb).
next(12,12,dandy).
next(11,12,teb).
next(10,12,cri).
next(9,12,cri).
next(8,12,lga).
next(7,12,cimbl).
next(6,12,cimbl).
next(5,12,lga).
next(4,12,teb).
next(3,12,cri).
next(2,12,cri).
next(1,12,dandy).
next(0,12,cri).
next(33,13,teb).
next(32,13,cimbl).
next(31,13,dandy).
next(30,13,lga).
next(29,13,dandy).
next(28,13,jfk).
next(27,13,ryend).
next(26,13,cimbl).
next(25,13,cri).
next(24,13,cimbl).
next(23,13,ryend).
next(22,13,dandy).
next(21,13,ryend).
next(20,13,ryend).
next(19,13,cri).
next(18,13,jfk).
next(17,13,dandy).
next(16,13,jfk).
next(15,13,jfk).
next(14,13,jfk).
next(13,13,ryend).
next(12,13,dandy).
next(11,13,teb).
next(10,13,cri).
next(9,13,cri).
next(8,13,lga).
next(7,13,cimbl).
next(6,13,cimbl).
next(5,13,lga).
next(4,13,cri).
next(3,13,cri).
next(2,13,dandy).
next(1,13,dandy).
next(0,13,cri).
next(33,14,ryend).
next(32,14,cimbl).
next(31,14,dandy).
next(30,14,teb).
next(29,14,lga).
next(28,14,dandy).
next(27,14,ryend).
next(26,14,lga).
next(25,14,cimbl).
next(24,14,cimbl).
next(23,14,dandy).
next(22,14,dandy).
next(21,14,ryend).
next(20,14,cimbl).
next(19,14,ryend).
next(18,14,jfk).
next(17,14,jfk).
next(16,14,jfk).
next(15,14,ryend).
next(14,14,lga).
next(13,14,teb).
next(12,14,dandy).
next(11,14,teb).
next(10,14,teb).
next(9,14,cimbl).
next(8,14,cri).
next(7,14,lga).
next(6,14,cimbl).
next(5,14,lga).
next(4,14,cimbl).
next(3,14,lga).
next(2,14,teb).
next(1,14,dandy).
next(0,14,ryend).
next(33,15,jfk).
next(32,15,cimbl).
next(31,15,dandy).
next(30,15,teb).
next(29,15,dandy).
next(28,15,teb).
next(27,15,ryend).
next(26,15,lga).
next(25,15,cimbl).
next(24,15,dandy).
next(23,15,cri).
next(22,15,dandy).
next(21,15,jfk).
next(20,15,cimbl).
next(19,15,dandy).
next(18,15,jfk).
next(17,15,cri).
next(16,15,jfk).
next(15,15,ryend).
next(14,15,lga).
next(13,15,cri).
next(12,15,dandy).
next(11,15,teb).
next(10,15,jfk).
next(9,15,ryend).
next(8,15,jfk).
next(7,15,lga).
next(6,15,cimbl).
next(5,15,lga).
next(4,15,cimbl).
next(3,15,lga).
next(2,15,teb).
next(1,15,dandy).
next(0,15,cimbl).
next(33,16,jfk).
next(32,16,cimbl).
next(31,16,cimbl).
next(30,16,teb).
next(29,16,lga).
next(28,16,ryend).
next(27,16,ryend).
next(26,16,lga).
next(25,16,cimbl).
next(24,16,dandy).
next(23,16,cimbl).
next(22,16,dandy).
next(21,16,jfk).
next(20,16,cimbl).
next(19,16,dandy).
next(18,16,jfk).
next(17,16,ryend).
next(16,16,jfk).
next(15,16,ryend).
next(14,16,jfk).
next(13,16,teb).
next(12,16,cri).
next(11,16,teb).
next(10,16,cimbl).
next(9,16,lga).
next(8,16,teb).
next(7,16,dandy).
next(6,16,cimbl).
next(5,16,lga).
next(4,16,lga).
next(3,16,dandy).
next(2,16,cimbl).
next(1,16,lga).
next(0,16,cimbl).
next(33,17,jfk).
next(32,17,cimbl).
next(31,17,cimbl).
next(30,17,teb).
next(29,17,ryend).
next(28,17,cri).
next(27,17,jfk).
next(26,17,cri).
next(25,17,jfk).
next(24,17,dandy).
next(23,17,teb).
next(22,17,dandy).
next(21,17,jfk).
next(20,17,cimbl).
next(19,17,dandy).
next(18,17,cri).
next(17,17,ryend).
next(16,17,cri).
next(15,17,ryend).
next(14,17,jfk).
next(13,17,dandy).
next(12,17,lga).
next(11,17,teb).
next(10,17,cimbl).
next(9,17,teb).
next(8,17,teb).
next(7,17,dandy).
next(6,17,jfk).
next(5,17,lga).
next(4,17,lga).
next(3,17,cimbl).
next(2,17,jfk).
next(1,17,ryend).
next(0,17,ryend).
next(33,18,jfk).
next(32,18,cimbl).
next(31,18,cimbl).
next(30,18,teb).
next(29,18,lga).
next(28,18,cri).
next(27,18,cri).
next(26,18,cri).
next(25,18,lga).
next(24,18,cimbl).
next(23,18,teb).
next(22,18,dandy).
next(21,18,ryend).
next(20,18,jfk).
next(19,18,dandy).
next(18,18,cri).
next(17,18,teb).
next(16,18,teb).
next(15,18,ryend).
next(14,18,jfk).
next(13,18,lga).
next(12,18,lga).
next(11,18,teb).
next(10,18,cimbl).
next(9,18,teb).
next(8,18,dandy).
next(7,18,dandy).
next(6,18,dandy).
next(5,18,cimbl).
next(4,18,cimbl).
next(3,18,ryend).
next(2,18,teb).
next(1,18,ryend).
next(0,18,lga).
next(33,19,jfk).
next(32,19,cimbl).
next(31,19,cimbl).
next(30,19,cri).
next(29,19,lga).
next(28,19,cri).
next(27,19,cri).
next(26,19,dandy).
next(25,19,ryend).
next(24,19,ryend).
next(23,19,teb).
next(22,19,teb).
next(21,19,ryend).
next(20,19,cri).
next(19,19,dandy).
next(18,19,cri).
next(17,19,cimbl).
next(16,19,jfk).
next(15,19,ryend).
next(14,19,jfk).
next(13,19,lga).
next(12,19,dandy).
next(11,19,teb).
next(10,19,cimbl).
next(9,19,jfk).
next(8,19,dandy).
next(7,19,dandy).
next(6,19,dandy).
next(5,19,jfk).
next(4,19,jfk).
next(3,19,dandy).
next(2,19,cimbl).
next(1,19,teb).
next(0,19,ryend).
next(33,20,jfk).
next(32,20,ryend).
next(31,20,teb).
next(30,20,cri).
next(29,20,lga).
next(28,20,cri).
next(27,20,cri).
next(26,20,teb).
next(25,20,ryend).
next(24,20,cri).
next(23,20,teb).
next(22,20,dandy).
next(21,20,ryend).
next(20,20,cri).
next(19,20,dandy).
next(18,20,jfk).
next(17,20,cimbl).
next(16,20,jfk).
next(15,20,ryend).
next(14,20,jfk).
next(13,20,lga).
next(12,20,dandy).
next(11,20,teb).
next(10,20,cimbl).
next(9,20,jfk).
next(8,20,lga).
next(7,20,dandy).
next(6,20,ryend).
next(5,20,cri).
next(4,20,jfk).
next(3,20,dandy).
next(2,20,cimbl).
next(1,20,dandy).
next(0,20,ryend).
next(33,21,jfk).
next(32,21,cri).
next(31,21,dandy).
next(30,21,cri).
next(29,21,cimbl).
next(28,21,lga).
next(27,21,jfk).
next(26,21,lga).
next(25,21,ryend).
next(24,21,teb).
next(23,21,teb).
next(22,21,dandy).
next(21,21,ryend).
next(20,21,cri).
next(19,21,dandy).
next(18,21,jfk).
next(17,21,cimbl).
next(16,21,jfk).
next(15,21,ryend).
next(14,21,jfk).
next(13,21,lga).
next(12,21,dandy).
next(11,21,teb).
next(10,21,ryend).
next(9,21,jfk).
next(8,21,cimbl).
next(7,21,dandy).
next(6,21,ryend).
next(5,21,lga).
next(4,21,cimbl).
next(3,21,dandy).
next(2,21,ryend).
next(1,21,cri).
next(0,21,ryend).
next(33,22,jfk).
next(32,22,lga).
next(31,22,dandy).
next(30,22,cri).
next(29,22,cimbl).
next(28,22,lga).
next(27,22,jfk).
next(26,22,cimbl).
next(25,22,ryend).
next(24,22,teb).
next(23,22,teb).
next(22,22,dandy).
next(21,22,ryend).
next(20,22,cri).
next(19,22,dandy).
next(18,22,jfk).
next(17,22,cimbl).
next(16,22,jfk).
next(15,22,ryend).
next(14,22,jfk).
next(13,22,lga).
next(12,22,dandy).
next(11,22,teb).
next(10,22,cri).
next(9,22,jfk).
next(8,22,cimbl).
next(7,22,dandy).
next(6,22,ryend).
next(5,22,lga).
next(4,22,cimbl).
next(3,22,dandy).
next(2,22,ryend).
next(1,22,cri).
next(0,22,ryend).
next(33,23,jfk).
next(32,23,lga).
next(31,23,dandy).
next(30,23,cri).
next(29,23,cimbl).
next(28,23,lga).
next(27,23,jfk).
next(26,23,cimbl).
next(25,23,ryend).
next(24,23,teb).
next(23,23,teb).
next(22,23,dandy).
next(21,23,ryend).
next(20,23,cri).
next(19,23,dandy).
next(18,23,jfk).
next(17,23,cimbl).
next(16,23,jfk).
next(15,23,ryend).
next(14,23,jfk).
next(13,23,lga).
next(12,23,dandy).
next(11,23,teb).
next(10,23,cri).
next(9,23,jfk).
next(8,23,cimbl).
next(7,23,dandy).
next(6,23,ryend).
next(5,23,lga).
next(4,23,cimbl).
next(3,23,dandy).
next(2,23,ryend).
next(1,23,cri).
next(0,23,ryend).
next(5,24,lga).
next(13,24,lga).
next(28,24,lga).
next(32,24,lga).
next(11,24,teb).
next(23,24,teb).
next(24,24,teb).
next(0,24,ryend).
next(2,24,ryend).
next(6,24,ryend).
next(15,24,ryend).
next(21,24,ryend).
next(25,24,ryend).
next(1,24,cri).
next(10,24,cri).
next(20,24,cri).
next(30,24,cri).
next(4,24,cimbl).
next(8,24,cimbl).
next(17,24,cimbl).
next(26,24,cimbl).
next(29,24,cimbl).
next(3,24,dandy).
next(7,24,dandy).
next(12,24,dandy).
next(19,24,dandy).
next(22,24,dandy).
next(31,24,dandy).
next(9,24,jfk).
next(14,24,jfk).
next(16,24,jfk).
next(18,24,jfk).
next(27,24,jfk).
next(33,24,jfk).
