out(0,(lga,cri),1,0).
in(0,(lga,cri),1,6).
out(0,(cri,lga),4,16).
in(0,(cri,lga),4,22).
out(0,(lga,cri),5,32).
in(0,(lga,cri),5,38).
out(0,(cri,cimbl),7,48).
in(0,(cri,cimbl),7,54).
out(0,(cimbl,cri),9,63).
in(0,(cimbl,cri),9,69).
out(0,(cri,dandy),10,78).
in(0,(cri,dandy),10,88).
out(0,(dandy,jfk),11,103).
in(0,(dandy,jfk),11,115).
out(0,(jfk,lga),12,134).
in(0,(jfk,lga),12,140).
out(0,(lga,jfk),13,150).
in(0,(lga,jfk),13,156).
out(0,(jfk,cri),14,166).
in(0,(jfk,cri),14,169).
out(0,(cri,cimbl),16,175).
in(0,(cri,cimbl),16,181).
out(0,(cimbl,dandy),17,190).
in(0,(cimbl,dandy),17,194).
out(0,(dandy,jfk),19,201).
in(0,(dandy,jfk),19,213).
out(0,(jfk,ryend),23,232).
in(0,(jfk,ryend),23,243).
out(0,(ryend,cimbl),24,261).
in(0,(ryend,cimbl),24,266).
out(1,(cri,teb),3,10).
in(1,(cri,teb),3,20).
out(1,(teb,jfk),4,25).
in(1,(teb,jfk),4,36).
out(1,(jfk,cimbl),5,54).
in(1,(jfk,cimbl),5,62).
out(1,(cimbl,teb),9,75).
in(1,(cimbl,teb),9,79).
out(1,(teb,lga),10,85).
in(1,(teb,lga),10,90).
out(1,(lga,ryend),15,99).
in(1,(lga,ryend),15,108).
out(1,(ryend,lga),16,122).
in(1,(ryend,lga),16,131).
out(1,(lga,jfk),17,145).
in(1,(lga,jfk),17,151).
out(1,(jfk,teb),19,161).
in(1,(jfk,teb),19,172).
out(1,(teb,cimbl),20,190).
in(1,(teb,cimbl),20,194).
out(1,(cimbl,teb),21,202).
in(1,(cimbl,teb),21,206).
out(1,(teb,dandy),22,210).
in(1,(teb,dandy),22,214).
out(1,(dandy,teb),23,220).
in(1,(dandy,teb),23,224).
out(2,(dandy,lga),2,16).
in(2,(dandy,lga),2,24).
out(2,(lga,dandy),4,24).
in(2,(lga,dandy),4,32).
out(2,(dandy,jfk),9,42).
in(2,(dandy,jfk),9,54).
out(2,(jfk,dandy),10,94).
in(2,(jfk,dandy),10,106).
out(2,(dandy,teb),12,116).
in(2,(dandy,teb),12,120).
out(2,(teb,lga),14,120).
in(2,(teb,lga),14,125).
out(2,(lga,jfk),17,128).
in(2,(lga,jfk),17,134).
out(2,(jfk,lga),19,144).
in(2,(jfk,lga),19,150).
out(2,(lga,cimbl),22,160).
in(2,(lga,cimbl),22,164).
out(2,(cimbl,jfk),23,170).
in(2,(cimbl,jfk),23,178).
out(2,(jfk,cri),24,191).
in(2,(jfk,cri),24,194).
out(3,(dandy,cri),2,16).
in(3,(dandy,cri),2,26).
out(3,(cri,cimbl),3,26).
in(3,(cri,cimbl),3,32).
out(3,(cimbl,dandy),4,70).
in(3,(cimbl,dandy),4,74).
out(3,(dandy,teb),5,83).
in(3,(dandy,teb),5,87).
out(3,(teb,cri),6,88).
in(3,(teb,cri),6,98).
out(3,(cri,teb),7,106).
in(3,(cri,teb),7,116).
out(3,(teb,cri),8,125).
in(3,(teb,cri),8,135).
out(3,(cri,cimbl),9,140).
in(3,(cri,cimbl),9,146).
out(3,(cimbl,lga),10,186).
in(3,(cimbl,lga),10,190).
out(3,(lga,ryend),11,196).
in(3,(lga,ryend),11,205).
out(3,(ryend,lga),12,205).
in(3,(ryend,lga),12,214).
out(3,(lga,teb),23,214).
in(3,(lga,teb),23,219).
out(3,(teb,jfk),24,221).
in(3,(teb,jfk),24,232).
out(4,(dandy,ryend),2,0).
in(4,(dandy,ryend),2,4).
out(4,(ryend,cri),3,24).
in(4,(ryend,cri),3,32).
out(4,(cri,jfk),8,55).
in(4,(cri,jfk),8,58).
out(4,(jfk,cimbl),9,70).
in(4,(jfk,cimbl),9,78).
out(4,(cimbl,dandy),10,91).
in(4,(cimbl,dandy),10,95).
out(4,(dandy,cimbl),12,104).
in(4,(dandy,cimbl),12,108).
out(4,(cimbl,dandy),14,108).
in(4,(cimbl,dandy),14,112).
out(4,(dandy,jfk),21,119).
in(4,(dandy,jfk),21,131).
out(4,(jfk,lga),23,158).
in(4,(jfk,lga),23,164).
out(4,(lga,dandy),24,166).
in(4,(lga,dandy),24,174).
out(5,(jfk,cimbl),3,0).
in(5,(jfk,cimbl),3,8).
out(5,(cimbl,dandy),4,28).
in(5,(cimbl,dandy),4,32).
out(5,(dandy,cimbl),5,32).
in(5,(dandy,cimbl),5,36).
out(5,(cimbl,lga),6,44).
in(5,(cimbl,lga),6,48).
out(5,(lga,ryend),8,53).
in(5,(lga,ryend),8,62).
out(5,(ryend,cimbl),9,76).
in(5,(ryend,cimbl),9,81).
out(5,(cimbl,teb),10,97).
in(5,(cimbl,teb),10,101).
out(5,(teb,cri),12,101).
in(5,(teb,cri),12,111).
out(5,(cri,cimbl),13,124).
in(5,(cri,cimbl),13,130).
out(5,(cimbl,dandy),20,139).
in(5,(cimbl,dandy),20,143).
out(6,(teb,jfk),1,5).
in(6,(teb,jfk),1,16).
out(6,(jfk,dandy),2,36).
in(6,(jfk,dandy),2,48).
out(6,(dandy,ryend),5,60).
in(6,(dandy,ryend),5,64).
out(6,(ryend,jfk),6,70).
in(6,(ryend,jfk),6,81).
out(6,(jfk,lga),8,99).
in(6,(jfk,lga),8,105).
out(6,(lga,dandy),10,115).
in(6,(lga,dandy),10,123).
out(6,(dandy,jfk),11,160).
in(6,(dandy,jfk),11,172).
out(6,(jfk,ryend),12,182).
in(6,(jfk,ryend),12,193).
out(6,(ryend,lga),13,196).
in(6,(ryend,lga),13,205).
out(6,(lga,ryend),16,228).
in(6,(lga,ryend),16,237).
out(6,(ryend,teb),19,253).
in(6,(ryend,teb),19,260).
out(6,(teb,cimbl),23,264).
in(6,(teb,cimbl),23,268).
out(7,(jfk,lga),2,32).
in(7,(jfk,lga),2,38).
out(7,(lga,dandy),6,48).
in(7,(lga,dandy),6,56).
out(7,(dandy,jfk),7,64).
in(7,(dandy,jfk),7,76).
out(7,(jfk,cimbl),14,76).
in(7,(jfk,cimbl),14,84).
out(7,(cimbl,cri),15,89).
in(7,(cimbl,cri),15,95).
out(7,(cri,ryend),16,106).
in(7,(cri,ryend),16,114).
out(7,(ryend,lga),20,125).
in(7,(ryend,lga),20,134).
out(7,(lga,cri),21,148).
in(7,(lga,cri),21,154).
out(7,(cri,teb),23,166).
in(7,(cri,teb),23,176).
out(8,(ryend,cimbl),1,16).
in(8,(ryend,cimbl),1,21).
out(8,(cimbl,ryend),3,37).
in(8,(cimbl,ryend),3,42).
out(8,(ryend,dandy),7,60).
in(8,(ryend,dandy),7,64).
out(8,(dandy,lga),8,68).
in(8,(dandy,lga),8,76).
out(8,(lga,teb),9,98).
in(8,(lga,teb),9,103).
out(8,(teb,cri),10,112).
in(8,(teb,cri),10,122).
out(8,(cri,ryend),11,127).
in(8,(cri,ryend),11,135).
out(8,(ryend,teb),12,135).
in(8,(ryend,teb),12,142).
out(8,(teb,jfk),13,183).
in(8,(teb,jfk),13,194).
out(8,(jfk,cimbl),14,198).
in(8,(jfk,cimbl),14,206).
out(8,(cimbl,ryend),15,212).
in(8,(cimbl,ryend),15,217).
out(8,(ryend,cri),16,217).
in(8,(ryend,cri),16,225).
out(8,(cri,dandy),17,225).
in(8,(cri,dandy),17,235).
out(8,(dandy,cri),18,244).
in(8,(dandy,cri),18,254).
out(8,(cri,teb),19,269).
in(8,(cri,teb),19,279).
out(9,(dandy,teb),1,0).
in(9,(dandy,teb),1,4).
out(9,(teb,ryend),2,21).
in(9,(teb,ryend),2,28).
out(9,(ryend,teb),3,29).
in(9,(ryend,teb),3,36).
out(9,(teb,dandy),7,72).
in(9,(teb,dandy),7,76).
out(9,(dandy,cri),14,80).
in(9,(dandy,cri),14,90).
out(9,(cri,dandy),15,90).
in(9,(cri,dandy),15,100).
out(9,(dandy,teb),16,124).
in(9,(dandy,teb),16,128).
out(9,(teb,lga),17,156).
in(9,(teb,lga),17,161).
out(9,(lga,dandy),19,166).
in(9,(lga,dandy),19,174).
out(9,(dandy,jfk),20,192).
in(9,(dandy,jfk),20,204).
out(9,(jfk,cri),22,207).
in(9,(jfk,cri),22,210).
out(10,(ryend,jfk),1,5).
in(10,(ryend,jfk),1,16).
out(10,(jfk,lga),2,34).
in(10,(jfk,lga),2,40).
out(10,(lga,ryend),4,69).
in(10,(lga,ryend),4,78).
out(10,(ryend,teb),8,125).
in(10,(ryend,teb),8,132).
out(10,(teb,cimbl),9,137).
in(10,(teb,cimbl),9,141).
out(10,(cimbl,lga),10,172).
in(10,(cimbl,lga),10,176).
out(10,(lga,cri),11,177).
in(10,(lga,cri),11,183).
out(10,(cri,jfk),12,211).
in(10,(cri,jfk),12,214).
out(10,(jfk,teb),13,224).
in(10,(jfk,teb),13,235).
out(10,(teb,lga),14,240).
in(10,(teb,lga),14,245).
out(10,(lga,dandy),16,245).
in(10,(lga,dandy),16,253).
out(10,(dandy,cri),17,253).
in(10,(dandy,cri),17,263).
out(10,(cri,ryend),18,270).
in(10,(cri,ryend),18,278).
out(10,(ryend,dandy),19,278).
in(10,(ryend,dandy),19,282).
out(10,(dandy,cri),20,282).
in(10,(dandy,cri),20,292).
out(10,(cri,ryend),21,292).
in(10,(cri,ryend),21,300).
out(10,(ryend,jfk),22,300).
in(10,(ryend,jfk),22,311).
out(10,(jfk,cri),23,326).
in(10,(jfk,cri),23,329).
out(10,(cri,lga),24,335).
in(10,(cri,lga),24,341).
out(11,(ryend,teb),1,0).
in(11,(ryend,teb),1,7).
out(11,(teb,cri),2,22).
in(11,(teb,cri),2,32).
out(11,(cri,teb),8,43).
in(11,(cri,teb),8,53).
out(11,(teb,ryend),9,68).
in(11,(teb,ryend),9,75).
out(11,(ryend,lga),10,86).
in(11,(ryend,lga),10,95).
out(11,(lga,ryend),14,109).
in(11,(lga,ryend),14,118).
out(11,(ryend,jfk),15,225).
in(11,(ryend,jfk),15,236).
out(11,(jfk,teb),17,240).
in(11,(jfk,teb),17,251).
out(11,(teb,ryend),19,275).
in(11,(teb,ryend),19,282).
out(11,(ryend,cimbl),22,282).
in(11,(ryend,cimbl),22,287).
out(11,(cimbl,dandy),23,288).
in(11,(cimbl,dandy),23,292).
out(11,(dandy,jfk),24,297).
in(11,(dandy,jfk),24,309).
out(12,(cimbl,cri),2,16).
in(12,(cimbl,cri),2,22).
out(12,(cri,cimbl),4,42).
in(12,(cri,cimbl),4,48).
out(12,(cimbl,jfk),5,94).
in(12,(cimbl,jfk),5,102).
out(12,(jfk,dandy),6,116).
in(12,(jfk,dandy),6,128).
out(12,(dandy,ryend),8,134).
in(12,(dandy,ryend),8,138).
out(12,(ryend,cri),9,141).
in(12,(ryend,cri),9,149).
out(12,(cri,dandy),10,151).
in(12,(cri,dandy),10,161).
out(12,(dandy,ryend),19,161).
in(12,(dandy,ryend),19,165).
out(12,(ryend,teb),21,165).
in(12,(ryend,teb),21,172).
out(12,(teb,lga),22,188).
in(12,(teb,lga),22,193).
out(13,(ryend,dandy),2,0).
in(13,(ryend,dandy),2,4).
out(13,(dandy,lga),4,16).
in(13,(dandy,lga),4,24).
out(13,(lga,cri),7,54).
in(13,(lga,cri),7,60).
out(13,(cri,lga),8,60).
in(13,(cri,lga),8,66).
out(13,(lga,teb),10,66).
in(13,(lga,teb),10,71).
out(13,(teb,dandy),12,136).
in(13,(teb,dandy),12,140).
out(13,(dandy,teb),14,140).
in(13,(dandy,teb),14,144).
out(13,(teb,dandy),15,148).
in(13,(teb,dandy),15,152).
out(13,(dandy,cimbl),16,176).
in(13,(dandy,cimbl),16,180).
out(13,(cimbl,cri),17,210).
in(13,(cimbl,cri),17,216).
out(13,(cri,jfk),18,242).
in(13,(cri,jfk),18,245).
out(13,(jfk,dandy),21,248).
in(13,(jfk,dandy),21,260).
out(13,(dandy,teb),23,262).
in(13,(dandy,teb),23,266).
out(13,(teb,lga),24,268).
in(13,(teb,lga),24,273).
out(14,(dandy,cimbl),1,0).
in(14,(dandy,cimbl),1,4).
out(14,(cimbl,cri),3,64).
in(14,(cimbl,cri),3,70).
out(14,(cri,cimbl),4,94).
in(14,(cri,cimbl),4,100).
out(14,(cimbl,teb),5,155).
in(14,(cimbl,teb),5,159).
out(14,(teb,cri),7,175).
in(14,(teb,cri),7,185).
out(14,(cri,jfk),8,249).
in(14,(cri,jfk),8,252).
out(14,(jfk,lga),12,256).
in(14,(jfk,lga),12,262).
out(14,(lga,cri),15,262).
in(14,(lga,cri),15,268).
out(14,(cri,cimbl),17,274).
in(14,(cri,cimbl),17,280).
out(14,(cimbl,lga),18,280).
in(14,(cimbl,lga),18,284).
out(14,(lga,teb),21,284).
in(14,(lga,teb),21,289).
out(14,(teb,dandy),23,289).
in(14,(teb,dandy),23,293).
out(15,(lga,teb),3,0).
in(15,(lga,teb),3,5).
out(15,(teb,cimbl),5,23).
in(15,(teb,cimbl),5,27).
out(15,(cimbl,jfk),14,110).
in(15,(cimbl,jfk),14,118).
out(15,(jfk,cimbl),15,118).
in(15,(jfk,cimbl),15,126).
out(15,(cimbl,ryend),17,142).
in(15,(cimbl,ryend),17,147).
out(15,(ryend,jfk),19,156).
in(15,(ryend,jfk),19,167).
out(15,(jfk,cimbl),21,188).
in(15,(jfk,cimbl),21,196).
out(15,(cimbl,ryend),22,216).
in(15,(cimbl,ryend),22,221).
out(15,(ryend,cimbl),24,223).
in(15,(ryend,cimbl),24,228).
out(16,(jfk,cimbl),1,48).
in(16,(jfk,cimbl),1,56).
out(16,(cimbl,cri),5,113).
in(16,(cimbl,cri),5,119).
out(16,(cri,cimbl),7,119).
in(16,(cri,cimbl),7,125).
out(16,(cimbl,teb),8,156).
in(16,(cimbl,teb),8,160).
out(16,(teb,cimbl),9,193).
in(16,(teb,cimbl),9,197).
out(16,(cimbl,teb),10,218).
in(16,(cimbl,teb),10,222).
out(16,(teb,jfk),11,250).
in(16,(teb,jfk),11,261).
out(16,(jfk,dandy),17,264).
in(16,(jfk,dandy),17,276).
out(16,(dandy,lga),21,276).
in(16,(dandy,lga),21,284).
out(16,(lga,cimbl),24,292).
in(16,(lga,cimbl),24,296).
out(17,(ryend,cimbl),2,38).
in(17,(ryend,cimbl),2,43).
out(17,(cimbl,teb),5,157).
in(17,(cimbl,teb),5,161).
out(17,(teb,cri),6,191).
in(17,(teb,cri),6,201).
out(17,(cri,ryend),7,226).
in(17,(cri,ryend),7,234).
out(17,(ryend,cri),12,234).
in(17,(ryend,cri),12,242).
out(17,(cri,lga),14,284).
in(17,(cri,lga),14,290).
out(17,(lga,cri),15,300).
in(17,(lga,cri),15,306).
out(17,(cri,lga),16,308).
in(17,(cri,lga),16,314).
out(17,(lga,cimbl),18,314).
in(17,(lga,cimbl),18,318).
out(17,(cimbl,ryend),23,318).
in(17,(cimbl,ryend),23,323).
out(18,(jfk,cri),13,0).
in(18,(jfk,cri),13,3).
out(18,(cri,dandy),14,16).
in(18,(cri,dandy),14,26).
out(18,(dandy,jfk),15,40).
in(18,(dandy,jfk),15,52).
out(18,(jfk,cimbl),16,116).
in(18,(jfk,cimbl),16,124).
out(18,(cimbl,teb),17,222).
in(18,(cimbl,teb),17,226).
out(18,(teb,cri),19,237).
in(18,(teb,cri),19,247).
out(18,(cri,cimbl),20,279).
in(18,(cri,cimbl),20,285).
out(18,(cimbl,cri),21,296).
in(18,(cimbl,cri),21,302).
out(18,(cri,ryend),22,302).
in(18,(cri,ryend),22,310).
out(18,(ryend,cri),23,310).
in(18,(ryend,cri),23,318).
out(18,(cri,dandy),24,322).
in(18,(cri,dandy),24,332).
out(19,(dandy,cimbl),7,0).
in(19,(dandy,cimbl),7,4).
out(19,(cimbl,dandy),8,20).
in(19,(cimbl,dandy),8,24).
out(19,(dandy,jfk),9,52).
in(19,(dandy,jfk),9,64).
out(19,(jfk,ryend),10,69).
in(19,(jfk,ryend),10,80).
out(19,(ryend,jfk),18,91).
in(19,(ryend,jfk),18,102).
out(19,(jfk,lga),20,174).
in(19,(jfk,lga),20,180).
out(19,(lga,teb),21,194).
in(19,(lga,teb),21,199).
out(19,(teb,cri),23,298).
in(19,(teb,cri),23,308).
out(20,(ryend,teb),2,0).
in(20,(ryend,teb),2,7).
out(20,(teb,cimbl),3,238).
in(20,(teb,cimbl),3,242).
out(20,(cimbl,cri),10,252).
in(20,(cimbl,cri),10,258).
out(20,(cri,teb),14,285).
in(20,(cri,teb),14,295).
out(20,(teb,jfk),15,295).
in(20,(teb,jfk),15,306).
out(20,(jfk,dandy),19,332).
in(20,(jfk,dandy),19,344).
out(20,(dandy,ryend),21,348).
in(20,(dandy,ryend),21,352).
out(20,(ryend,cri),22,359).
in(20,(ryend,cri),22,367).
out(21,(cri,jfk),2,0).
in(21,(cri,jfk),2,3).
out(21,(jfk,teb),4,42).
in(21,(jfk,teb),4,53).
out(21,(teb,jfk),14,74).
in(21,(teb,jfk),14,85).
out(21,(jfk,cri),17,132).
in(21,(jfk,cri),17,135).
out(21,(cri,lga),18,176).
in(21,(cri,lga),18,182).
out(22,(jfk,teb),1,26).
in(22,(jfk,teb),1,37).
out(22,(teb,ryend),5,38).
in(22,(teb,ryend),5,45).
out(22,(ryend,jfk),6,172).
in(22,(ryend,jfk),6,183).
out(22,(jfk,ryend),9,229).
in(22,(jfk,ryend),9,240).
out(22,(ryend,cimbl),12,250).
in(22,(ryend,cimbl),12,255).
out(22,(cimbl,lga),14,255).
in(22,(cimbl,lga),14,259).
out(22,(lga,cimbl),15,259).
in(22,(lga,cimbl),15,263).
out(22,(cimbl,dandy),17,301).
in(22,(cimbl,dandy),17,305).
out(22,(dandy,lga),18,305).
in(22,(dandy,lga),18,313).
out(22,(lga,cri),19,330).
in(22,(lga,cri),19,336).
out(22,(cri,cimbl),20,336).
in(22,(cri,cimbl),20,342).
out(22,(cimbl,jfk),22,342).
in(22,(cimbl,jfk),22,350).
out(22,(jfk,cri),24,350).
in(22,(jfk,cri),24,353).
out(23,(cimbl,cri),1,140).
in(23,(cimbl,cri),1,146).
out(23,(cri,dandy),2,167).
in(23,(cri,dandy),2,177).
out(23,(dandy,jfk),4,187).
in(23,(dandy,jfk),4,199).
out(23,(jfk,dandy),12,215).
in(23,(jfk,dandy),12,227).
out(23,(dandy,ryend),20,281).
in(23,(dandy,ryend),20,285).
out(23,(ryend,dandy),21,304).
in(23,(ryend,dandy),21,308).
out(23,(dandy,ryend),22,312).
in(23,(dandy,ryend),22,316).
out(24,(teb,dandy),1,44).
in(24,(teb,dandy),1,48).
out(24,(dandy,teb),2,90).
in(24,(dandy,teb),2,94).
out(24,(teb,dandy),3,204).
in(24,(teb,dandy),3,208).
out(24,(dandy,ryend),5,246).
in(24,(dandy,ryend),5,250).
out(24,(ryend,lga),6,316).
in(24,(ryend,lga),6,325).
out(24,(lga,cimbl),7,329).
in(24,(lga,cimbl),7,333).
out(24,(cimbl,ryend),12,334).
in(24,(cimbl,ryend),12,339).
out(24,(ryend,jfk),16,342).
in(24,(ryend,jfk),16,353).
out(24,(jfk,teb),19,353).
in(24,(jfk,teb),19,364).
out(24,(teb,dandy),24,364).
in(24,(teb,dandy),24,368).
out(25,(cimbl,ryend),2,11).
in(25,(cimbl,ryend),2,16).
out(25,(ryend,jfk),4,209).
in(25,(ryend,jfk),4,220).
out(25,(jfk,ryend),6,248).
in(25,(jfk,ryend),6,259).
out(25,(ryend,jfk),8,266).
in(25,(ryend,jfk),8,277).
out(25,(jfk,cri),12,315).
in(25,(jfk,cri),12,318).
out(25,(cri,cimbl),13,351).
in(25,(cri,cimbl),13,357).
out(25,(cimbl,ryend),15,357).
in(25,(cimbl,ryend),15,362).
out(25,(ryend,jfk),17,362).
in(25,(ryend,jfk),17,373).
out(25,(jfk,cri),20,377).
in(25,(jfk,cri),20,380).
out(25,(cri,jfk),21,380).
in(25,(cri,jfk),21,383).
out(25,(jfk,cimbl),22,383).
in(25,(jfk,cimbl),22,391).
out(25,(cimbl,teb),23,391).
in(25,(cimbl,teb),23,395).
out(25,(teb,lga),24,395).
in(25,(teb,lga),24,400).
out(26,(lga,cimbl),2,112).
in(26,(lga,cimbl),2,116).
out(26,(cimbl,teb),11,249).
in(26,(cimbl,teb),11,253).
out(26,(teb,dandy),12,309).
in(26,(teb,dandy),12,313).
out(26,(dandy,cri),13,328).
in(26,(dandy,cri),13,338).
out(26,(cri,lga),16,345).
in(26,(cri,lga),16,351).
out(26,(lga,cimbl),18,354).
in(26,(lga,cimbl),18,358).
out(26,(cimbl,cri),19,358).
in(26,(cimbl,cri),19,364).
out(26,(cri,cimbl),21,364).
in(26,(cri,cimbl),21,370).
out(26,(cimbl,lga),22,373).
in(26,(cimbl,lga),22,377).
out(27,(cri,lga),12,50).
in(27,(cri,lga),12,56).
out(27,(lga,ryend),14,83).
in(27,(lga,ryend),14,92).
out(27,(ryend,cimbl),17,166).
in(27,(ryend,cimbl),17,171).
out(27,(cimbl,lga),18,226).
in(27,(cimbl,lga),18,230).
out(27,(lga,ryend),20,257).
in(27,(lga,ryend),20,266).
out(27,(ryend,cri),21,344).
in(27,(ryend,cri),21,352).
out(27,(cri,cimbl),23,368).
in(27,(cri,cimbl),23,374).
out(28,(jfk,lga),2,269).
in(28,(jfk,lga),2,275).
out(28,(lga,cri),4,363).
in(28,(lga,cri),4,369).
out(28,(cri,teb),5,383).
in(28,(cri,teb),5,393).
out(28,(teb,jfk),6,393).
in(28,(teb,jfk),6,404).
out(28,(jfk,ryend),7,404).
in(28,(jfk,ryend),7,415).
out(28,(ryend,cri),16,415).
in(28,(ryend,cri),16,423).
out(28,(cri,teb),17,423).
in(28,(cri,teb),17,433).
out(28,(teb,ryend),18,433).
in(28,(teb,ryend),18,440).
out(28,(ryend,cimbl),19,440).
in(28,(ryend,cimbl),19,445).
out(28,(cimbl,jfk),20,445).
in(28,(cimbl,jfk),20,453).
out(28,(jfk,teb),21,453).
in(28,(jfk,teb),21,464).
out(29,(teb,ryend),2,39).
in(29,(teb,ryend),2,46).
out(29,(ryend,jfk),3,269).
in(29,(ryend,jfk),3,280).
out(29,(jfk,dandy),5,309).
in(29,(jfk,dandy),5,321).
out(29,(dandy,ryend),7,322).
in(29,(dandy,ryend),7,326).
out(29,(ryend,dandy),8,332).
in(29,(ryend,dandy),8,336).
out(29,(dandy,jfk),10,354).
in(29,(dandy,jfk),10,366).
out(29,(jfk,teb),12,366).
in(29,(jfk,teb),12,377).
out(29,(teb,ryend),13,377).
in(29,(teb,ryend),13,384).
out(29,(ryend,dandy),14,384).
in(29,(ryend,dandy),14,388).
out(29,(dandy,jfk),16,388).
in(29,(dandy,jfk),16,400).
out(29,(jfk,ryend),17,407).
in(29,(jfk,ryend),17,418).
out(29,(ryend,dandy),18,418).
in(29,(ryend,dandy),18,422).
out(29,(dandy,lga),20,422).
in(29,(dandy,lga),20,430).
out(29,(lga,dandy),22,430).
in(29,(lga,dandy),22,438).
out(29,(dandy,jfk),23,438).
in(29,(dandy,jfk),23,450).
out(30,(cimbl,jfk),1,271).
in(30,(cimbl,jfk),1,279).
out(30,(jfk,dandy),4,325).
in(30,(jfk,dandy),4,337).
out(30,(dandy,lga),5,338).
in(30,(dandy,lga),5,346).
out(30,(lga,teb),6,346).
in(30,(lga,teb),6,351).
out(30,(teb,jfk),11,351).
in(30,(teb,jfk),11,362).
out(30,(jfk,teb),12,391).
in(30,(jfk,teb),12,402).
out(30,(teb,dandy),13,409).
in(30,(teb,dandy),13,413).
out(30,(dandy,teb),19,413).
in(30,(dandy,teb),19,417).
out(30,(teb,ryend),24,417).
in(30,(teb,ryend),24,424).
out(31,(cri,jfk),1,0).
in(31,(cri,jfk),1,3).
out(31,(jfk,cri),8,381).
in(31,(jfk,cri),8,384).
out(31,(cri,ryend),9,385).
in(31,(cri,ryend),9,393).
out(31,(ryend,cri),10,395).
in(31,(ryend,cri),10,403).
out(31,(cri,cimbl),12,403).
in(31,(cri,cimbl),12,409).
out(31,(cimbl,jfk),13,409).
in(31,(cimbl,jfk),13,417).
out(31,(jfk,cimbl),14,417).
in(31,(jfk,cimbl),14,425).
out(31,(cimbl,teb),15,425).
in(31,(cimbl,teb),15,429).
out(31,(teb,lga),16,429).
in(31,(teb,lga),16,434).
out(31,(lga,teb),17,434).
in(31,(lga,teb),17,439).
out(31,(teb,cri),18,445).
in(31,(teb,cri),18,455).
out(31,(cri,jfk),19,455).
in(31,(cri,jfk),19,458).
out(31,(jfk,ryend),20,458).
in(31,(jfk,ryend),20,469).
out(31,(ryend,dandy),22,469).
in(31,(ryend,dandy),22,473).
out(31,(dandy,lga),23,473).
in(31,(dandy,lga),23,481).
out(32,(cimbl,lga),2,0).
in(32,(cimbl,lga),2,4).
out(32,(lga,jfk),3,13).
in(32,(lga,jfk),3,19).
out(32,(jfk,lga),4,294).
in(32,(jfk,lga),4,300).
out(32,(lga,ryend),5,317).
in(32,(lga,ryend),5,326).
out(32,(ryend,cimbl),6,332).
in(32,(ryend,cimbl),6,337).
out(32,(cimbl,lga),10,353).
in(32,(cimbl,lga),10,357).
out(32,(lga,cimbl),11,369).
in(32,(lga,cimbl),11,373).
out(32,(cimbl,ryend),13,374).
in(32,(cimbl,ryend),13,379).
out(32,(ryend,teb),14,379).
in(32,(ryend,teb),14,386).
out(32,(teb,lga),15,409).
in(32,(teb,lga),15,414).
out(32,(lga,ryend),17,422).
in(32,(lga,ryend),17,431).
out(32,(ryend,cimbl),19,431).
in(32,(ryend,cimbl),19,436).
out(32,(cimbl,lga),21,436).
in(32,(cimbl,lga),21,440).
out(32,(lga,jfk),23,460).
in(32,(lga,jfk),23,466).
out(32,(jfk,ryend),24,469).
in(32,(jfk,ryend),24,480).
out(33,(lga,jfk),5,0).
in(33,(lga,jfk),5,6).
out(33,(jfk,cri),6,393).
in(33,(jfk,cri),6,396).
out(33,(cri,lga),7,396).
in(33,(cri,lga),7,402).
out(33,(lga,cri),8,402).
in(33,(lga,cri),8,408).
out(33,(cri,cimbl),11,412).
in(33,(cri,cimbl),11,418).
out(33,(cimbl,ryend),12,429).
in(33,(cimbl,ryend),12,434).
out(33,(ryend,dandy),13,447).
in(33,(ryend,dandy),13,451).
out(33,(dandy,teb),14,451).
in(33,(dandy,teb),14,455).
out(33,(teb,cimbl),18,455).
in(33,(teb,cimbl),18,459).
out(33,(cimbl,dandy),19,459).
in(33,(cimbl,dandy),19,463).
out(33,(dandy,jfk),21,463).
in(33,(dandy,jfk),21,475).
out(33,(jfk,lga),22,475).
in(33,(jfk,lga),22,481).
out(33,(lga,ryend),24,481).
in(33,(lga,ryend),24,490).
