next(0,0,lga).
next(1,0,cri).
next(2,0,dandy).
next(3,0,dandy).
next(4,0,dandy).
next(5,0,jfk).
next(6,0,teb).
next(7,0,jfk).
next(8,0,ryend).
next(9,0,dandy).
next(10,0,ryend).
next(11,0,ryend).
next(12,0,cimbl).
next(13,0,ryend).
next(14,0,dandy).
next(15,0,lga).
next(16,0,jfk).
next(17,0,ryend).
next(18,0,jfk).
next(19,0,dandy).
next(20,0,ryend).
next(21,0,cri).
next(22,0,jfk).
next(23,0,cimbl).
next(24,0,teb).
next(25,0,cimbl).
next(26,0,lga).
next(27,0,cri).
next(28,0,jfk).
next(29,0,teb).
next(30,0,cimbl).
next(31,0,cri).
next(32,0,cimbl).
next(33,0,lga).
next(33,1,lga).
next(32,1,cri).
next(31,1,cri).
next(30,1,cimbl).
next(29,1,ryend).
next(28,1,jfk).
next(27,1,ryend).
next(26,1,cri).
next(25,1,teb).
next(24,1,cimbl).
next(23,1,cri).
next(22,1,cri).
next(21,1,jfk).
next(20,1,ryend).
next(19,1,jfk).
next(18,1,jfk).
next(17,1,ryend).
next(16,1,teb).
next(15,1,cri).
next(14,1,dandy).
next(13,1,dandy).
next(12,1,dandy).
next(11,1,ryend).
next(10,1,ryend).
next(9,1,jfk).
next(8,1,lga).
next(7,1,lga).
next(6,1,teb).
next(5,1,jfk).
next(4,1,ryend).
next(3,1,cimbl).
next(2,1,jfk).
next(1,1,cri).
next(0,1,lga).
next(33,2,lga).
next(32,2,cri).
next(31,2,jfk).
next(30,2,cimbl).
next(29,2,ryend).
next(28,2,cimbl).
next(27,2,teb).
next(26,2,cri).
next(25,2,lga).
next(24,2,cimbl).
next(23,2,dandy).
next(22,2,ryend).
next(21,2,lga).
next(20,2,ryend).
next(19,2,dandy).
next(18,2,jfk).
next(17,2,ryend).
next(16,2,teb).
next(15,2,cri).
next(14,2,cimbl).
next(13,2,teb).
next(12,2,ryend).
next(11,2,lga).
next(10,2,ryend).
next(9,2,cimbl).
next(8,2,lga).
next(7,2,dandy).
next(6,2,teb).
next(5,2,jfk).
next(4,2,ryend).
next(3,2,cimbl).
next(2,2,jfk).
next(1,2,teb).
next(0,2,lga).
next(33,3,lga).
next(32,3,cri).
next(31,3,jfk).
next(30,3,cri).
next(29,3,ryend).
next(28,3,cimbl).
next(27,3,teb).
next(26,3,ryend).
next(25,3,teb).
next(24,3,jfk).
next(23,3,dandy).
next(22,3,cri).
next(21,3,dandy).
next(20,3,ryend).
next(19,3,dandy).
next(18,3,cimbl).
next(17,3,lga).
next(16,3,cimbl).
next(15,3,cri).
next(14,3,cimbl).
next(13,3,lga).
next(12,3,dandy).
next(11,3,teb).
next(10,3,jfk).
next(9,3,cri).
next(8,3,jfk).
next(7,3,dandy).
next(6,3,teb).
next(5,3,jfk).
next(4,3,ryend).
next(3,3,cimbl).
next(2,3,jfk).
next(1,3,ryend).
next(0,3,lga).
next(33,4,lga).
next(32,4,cri).
next(31,4,lga).
next(30,4,dandy).
next(29,4,ryend).
next(28,4,cimbl).
next(27,4,cri).
next(26,4,teb).
next(25,4,ryend).
next(24,4,jfk).
next(23,4,dandy).
next(22,4,dandy).
next(21,4,dandy).
next(20,4,dandy).
next(19,4,jfk).
next(18,4,cimbl).
next(17,4,cimbl).
next(16,4,cimbl).
next(15,4,cimbl).
next(14,4,cimbl).
next(13,4,lga).
next(12,4,jfk).
next(11,4,lga).
next(10,4,jfk).
next(9,4,cri).
next(8,4,ryend).
next(7,4,ryend).
next(6,4,teb).
next(5,4,jfk).
next(4,4,teb).
next(3,4,cimbl).
next(2,4,jfk).
next(1,4,teb).
next(0,4,cri).
next(33,5,lga).
next(32,5,cri).
next(31,5,jfk).
next(30,5,ryend).
next(29,5,ryend).
next(28,5,cimbl).
next(27,5,cimbl).
next(26,5,cimbl).
next(25,5,cimbl).
next(24,5,dandy).
next(23,5,teb).
next(22,5,cri).
next(21,5,lga).
next(20,5,dandy).
next(19,5,dandy).
next(18,5,lga).
next(17,5,cimbl).
next(16,5,teb).
next(15,5,cri).
next(14,5,cimbl).
next(13,5,lga).
next(12,5,ryend).
next(11,5,lga).
next(10,5,cri).
next(9,5,cri).
next(8,5,ryend).
next(7,5,ryend).
next(6,5,teb).
next(5,5,jfk).
next(4,5,jfk).
next(3,5,cimbl).
next(2,5,jfk).
next(1,5,jfk).
next(0,5,cri).
next(33,6,jfk).
next(32,6,cri).
next(31,6,dandy).
next(30,6,ryend).
next(29,6,ryend).
next(28,6,ryend).
next(27,6,cimbl).
next(26,6,dandy).
next(25,6,teb).
next(24,6,ryend).
next(23,6,lga).
next(22,6,teb).
next(21,6,lga).
next(20,6,dandy).
next(19,6,lga).
next(18,6,teb).
next(17,6,lga).
next(16,6,dandy).
next(15,6,cri).
next(14,6,cimbl).
next(13,6,ryend).
next(12,6,cri).
next(11,6,cimbl).
next(10,6,cri).
next(9,6,cri).
next(8,6,ryend).
next(7,6,ryend).
next(6,6,cri).
next(5,6,jfk).
next(4,6,jfk).
next(3,6,cimbl).
next(2,6,jfk).
next(1,6,cimbl).
next(0,6,cri).
next(33,7,dandy).
next(32,7,cri).
next(31,7,dandy).
next(30,7,lga).
next(29,7,ryend).
next(28,7,dandy).
next(27,7,cimbl).
next(26,7,dandy).
next(25,7,teb).
next(24,7,ryend).
next(23,7,cimbl).
next(22,7,teb).
next(21,7,teb).
next(20,7,cri).
next(19,7,jfk).
next(18,7,jfk).
next(17,7,cri).
next(16,7,dandy).
next(15,7,cimbl).
next(14,7,cimbl).
next(13,7,lga).
next(12,7,ryend).
next(11,7,cimbl).
next(10,7,cri).
next(9,7,cri).
next(8,7,jfk).
next(7,7,ryend).
next(6,7,cri).
next(5,7,teb).
next(4,7,cimbl).
next(3,7,cri).
next(2,7,ryend).
next(1,7,cimbl).
next(0,7,cri).
next(33,8,dandy).
next(32,8,jfk).
next(31,8,dandy).
next(30,8,lga).
next(29,8,ryend).
next(28,8,teb).
next(27,8,dandy).
next(26,8,cimbl).
next(25,8,lga).
next(24,8,ryend).
next(23,8,cimbl).
next(22,8,teb).
next(21,8,teb).
next(20,8,dandy).
next(19,8,jfk).
next(18,8,teb).
next(17,8,cri).
next(16,8,dandy).
next(15,8,cimbl).
next(14,8,lga).
next(13,8,lga).
next(12,8,ryend).
next(11,8,cimbl).
next(10,8,cri).
next(9,8,cri).
next(8,8,jfk).
next(7,8,ryend).
next(6,8,jfk).
next(5,8,cimbl).
next(4,8,cimbl).
next(3,8,dandy).
next(2,8,teb).
next(1,8,lga).
next(0,8,ryend).
next(33,9,jfk).
next(32,9,lga).
next(31,9,dandy).
next(30,9,lga).
next(29,9,ryend).
next(28,9,teb).
next(27,9,dandy).
next(26,9,cimbl).
next(25,9,lga).
next(24,9,cimbl).
next(23,9,cri).
next(22,9,jfk).
next(21,9,teb).
next(20,9,dandy).
next(19,9,cimbl).
next(18,9,dandy).
next(17,9,cimbl).
next(16,9,cri).
next(15,9,cri).
next(14,9,cri).
next(13,9,ryend).
next(12,9,jfk).
next(11,9,cimbl).
next(10,9,cri).
next(9,9,cri).
next(8,9,ryend).
next(7,9,ryend).
next(6,9,jfk).
next(5,9,cimbl).
next(4,9,teb).
next(3,9,lga).
next(2,9,teb).
next(1,9,cri).
next(0,9,dandy).
next(33,10,jfk).
next(32,10,jfk).
next(31,10,dandy).
next(30,10,teb).
next(29,10,cimbl).
next(28,10,ryend).
next(27,10,teb).
next(26,10,cimbl).
next(25,10,lga).
next(24,10,cimbl).
next(23,10,teb).
next(22,10,jfk).
next(21,10,jfk).
next(20,10,dandy).
next(19,10,teb).
next(18,10,ryend).
next(17,10,cimbl).
next(16,10,lga).
next(15,10,lga).
next(14,10,lga).
next(13,10,ryend).
next(12,10,jfk).
next(11,10,cimbl).
next(10,10,cri).
next(9,10,cri).
next(8,10,ryend).
next(7,10,ryend).
next(6,10,ryend).
next(5,10,cimbl).
next(4,10,teb).
next(3,10,dandy).
next(2,10,teb).
next(1,10,dandy).
next(0,10,dandy).
next(33,11,jfk).
next(32,11,jfk).
next(31,11,cimbl).
next(30,11,lga).
next(29,11,dandy).
next(28,11,cimbl).
next(27,11,lga).
next(26,11,cimbl).
next(25,11,ryend).
next(24,11,cimbl).
next(23,11,teb).
next(22,11,dandy).
next(21,11,jfk).
next(20,11,dandy).
next(19,11,teb).
next(18,11,cri).
next(17,11,cimbl).
next(16,11,lga).
next(15,11,dandy).
next(14,11,lga).
next(13,11,jfk).
next(12,11,teb).
next(11,11,cimbl).
next(10,11,cri).
next(9,11,cri).
next(8,11,jfk).
next(7,11,cimbl).
next(6,11,cimbl).
next(5,11,cimbl).
next(4,11,cri).
next(3,11,cri).
next(2,11,cri).
next(1,11,dandy).
next(0,11,cri).
next(33,12,lga).
next(32,12,teb).
next(31,12,dandy).
next(30,12,lga).
next(29,12,dandy).
next(28,12,cimbl).
next(27,12,ryend).
next(26,12,cimbl).
next(25,12,ryend).
next(24,12,cimbl).
next(23,12,ryend).
next(22,12,cimbl).
next(21,12,ryend).
next(20,12,ryend).
next(19,12,teb).
next(18,12,jfk).
next(17,12,cimbl).
next(16,12,lga).
next(15,12,dandy).
next(14,12,lga).
next(13,12,teb).
next(12,12,dandy).
next(11,12,teb).
next(10,12,cri).
next(9,12,cri).
next(8,12,lga).
next(7,12,cimbl).
next(6,12,cimbl).
next(5,12,lga).
next(4,12,teb).
next(3,12,cri).
next(2,12,cri).
next(1,12,dandy).
next(0,12,cri).
next(33,13,teb).
next(32,13,cimbl).
next(31,13,dandy).
next(30,13,lga).
next(29,13,dandy).
next(28,13,jfk).
next(27,13,ryend).
next(26,13,cimbl).
next(25,13,cri).
next(24,13,cimbl).
next(23,13,ryend).
next(22,13,dandy).
next(21,13,ryend).
next(20,13,ryend).
next(19,13,cri).
next(18,13,jfk).
next(17,13,dandy).
next(16,13,jfk).
next(15,13,jfk).
next(14,13,jfk).
next(13,13,ryend).
next(12,13,dandy).
next(11,13,teb).
next(10,13,cri).
next(9,13,cri).
next(8,13,lga).
next(7,13,cimbl).
next(6,13,cimbl).
next(5,13,lga).
next(4,13,cri).
next(3,13,cri).
next(2,13,dandy).
next(1,13,dandy).
next(0,13,cri).
next(33,14,ryend).
next(32,14,cimbl).
next(31,14,dandy).
next(30,14,teb).
next(29,14,lga).
next(28,14,dandy).
next(27,14,ryend).
next(26,14,lga).
next(25,14,cimbl).
next(24,14,cimbl).
next(23,14,dandy).
next(22,14,dandy).
next(21,14,ryend).
next(20,14,cimbl).
next(19,14,ryend).
next(18,14,jfk).
next(17,14,jfk).
next(16,14,jfk).
next(15,14,ryend).
next(14,14,lga).
next(13,14,teb).
next(12,14,dandy).
next(11,14,teb).
next(10,14,teb).
next(9,14,cimbl).
next(8,14,cri).
next(7,14,lga).
next(6,14,cimbl).
next(5,14,lga).
next(4,14,cimbl).
next(3,14,lga).
next(2,14,teb).
next(1,14,dandy).
next(0,14,ryend).
next(33,15,jfk).
next(32,15,cimbl).
next(31,15,dandy).
next(30,15,teb).
next(29,15,dandy).
next(28,15,teb).
next(27,15,ryend).
next(26,15,lga).
next(25,15,cimbl).
next(24,15,dandy).
next(23,15,cri).
next(22,15,dandy).
next(21,15,jfk).
next(20,15,cimbl).
next(19,15,dandy).
next(18,15,jfk).
next(17,15,cri).
next(16,15,jfk).
next(15,15,ryend).
next(14,15,lga).
next(13,15,cri).
next(12,15,dandy).
next(11,15,teb).
next(10,15,jfk).
next(9,15,ryend).
next(8,15,jfk).
next(7,15,lga).
next(6,15,cimbl).
next(5,15,lga).
next(4,15,cimbl).
next(3,15,lga).
next(2,15,teb).
next(1,15,dandy).
next(0,15,cimbl).
next(33,16,jfk).
next(32,16,cimbl).
next(31,16,cimbl).
next(30,16,teb).
next(29,16,lga).
next(28,16,ryend).
next(27,16,ryend).
next(26,16,lga).
next(25,16,cimbl).
next(24,16,dandy).
next(23,16,cimbl).
next(22,16,dandy).
next(21,16,jfk).
next(20,16,cimbl).
next(19,16,dandy).
next(18,16,jfk).
next(17,16,ryend).
next(16,16,jfk).
next(15,16,ryend).
next(14,16,jfk).
next(13,16,teb).
next(12,16,cri).
next(11,16,teb).
next(10,16,cimbl).
next(9,16,lga).
next(8,16,teb).
next(7,16,dandy).
next(6,16,cimbl).
next(5,16,lga).
next(4,16,lga).
next(3,16,dandy).
next(2,16,cimbl).
next(1,16,lga).
next(0,16,cimbl).
next(33,17,jfk).
next(32,17,cimbl).
next(31,17,cimbl).
next(30,17,teb).
next(29,17,ryend).
next(28,17,cri).
next(27,17,jfk).
next(26,17,cri).
next(25,17,jfk).
next(24,17,dandy).
next(23,17,teb).
next(22,17,dandy).
next(21,17,jfk).
next(20,17,cimbl).
next(19,17,dandy).
next(18,17,cri).
next(17,17,ryend).
next(16,17,cri).
next(15,17,ryend).
next(14,17,jfk).
next(13,17,dandy).
next(12,17,lga).
next(11,17,teb).
next(10,17,cimbl).
next(9,17,teb).
next(8,17,teb).
next(7,17,dandy).
next(6,17,jfk).
next(5,17,lga).
next(4,17,lga).
next(3,17,cimbl).
next(2,17,jfk).
next(1,17,ryend).
next(0,17,ryend).
next(33,18,jfk).
next(32,18,cimbl).
next(31,18,cimbl).
next(30,18,teb).
next(29,18,lga).
next(28,18,cri).
next(27,18,cri).
next(26,18,cri).
next(25,18,lga).
next(24,18,cimbl).
next(23,18,teb).
next(22,18,dandy).
next(21,18,ryend).
next(20,18,jfk).
next(19,18,dandy).
next(18,18,cri).
next(17,18,teb).
next(16,18,teb).
next(15,18,ryend).
next(14,18,jfk).
next(13,18,lga).
next(12,18,lga).
next(11,18,teb).
next(10,18,cimbl).
next(9,18,teb).
next(8,18,dandy).
next(7,18,dandy).
next(6,18,dandy).
next(5,18,cimbl).
next(4,18,cimbl).
next(3,18,ryend).
next(2,18,teb).
next(1,18,ryend).
next(0,18,lga).
next(33,19,jfk).
next(32,19,cimbl).
next(31,19,cimbl).
next(30,19,cri).
next(29,19,lga).
next(28,19,cri).
next(27,19,cri).
next(26,19,dandy).
next(25,19,ryend).
next(24,19,ryend).
next(23,19,teb).
next(22,19,teb).
next(21,19,ryend).
next(20,19,cri).
next(19,19,dandy).
next(18,19,cri).
next(17,19,cimbl).
next(16,19,jfk).
next(15,19,ryend).
next(14,19,jfk).
next(13,19,lga).
next(12,19,dandy).
next(11,19,teb).
next(10,19,cimbl).
next(9,19,jfk).
next(8,19,dandy).
next(7,19,dandy).
next(6,19,dandy).
next(5,19,jfk).
next(4,19,jfk).
next(3,19,dandy).
next(2,19,cimbl).
next(1,19,teb).
next(0,19,ryend).
next(33,20,jfk).
next(32,20,ryend).
next(31,20,teb).
next(30,20,cri).
next(29,20,lga).
next(28,20,cri).
next(27,20,cri).
next(26,20,teb).
next(25,20,ryend).
next(24,20,cri).
next(23,20,teb).
next(22,20,dandy).
next(21,20,ryend).
next(20,20,cri).
next(19,20,dandy).
next(18,20,jfk).
next(17,20,cimbl).
next(16,20,jfk).
next(15,20,ryend).
next(14,20,jfk).
next(13,20,lga).
next(12,20,dandy).
next(11,20,teb).
next(10,20,cimbl).
next(9,20,jfk).
next(8,20,lga).
next(7,20,dandy).
next(6,20,ryend).
next(5,20,cri).
next(4,20,jfk).
next(3,20,dandy).
next(2,20,cimbl).
next(1,20,dandy).
next(0,20,ryend).
next(33,21,jfk).
next(32,21,cri).
next(31,21,dandy).
next(30,21,cri).
next(29,21,cimbl).
next(28,21,lga).
next(27,21,jfk).
next(26,21,lga).
next(25,21,ryend).
next(24,21,teb).
next(23,21,teb).
next(22,21,dandy).
next(21,21,ryend).
next(20,21,cri).
next(19,21,dandy).
next(18,21,jfk).
next(17,21,cimbl).
next(16,21,jfk).
next(15,21,ryend).
next(14,21,jfk).
next(13,21,lga).
next(12,21,dandy).
next(11,21,teb).
next(10,21,ryend).
next(9,21,jfk).
next(8,21,cimbl).
next(7,21,dandy).
next(6,21,ryend).
next(5,21,lga).
next(4,21,cimbl).
next(3,21,dandy).
next(2,21,ryend).
next(1,21,cri).
next(0,21,ryend).
next(33,22,jfk).
next(32,22,lga).
next(31,22,dandy).
next(30,22,cri).
next(29,22,cimbl).
next(28,22,lga).
next(27,22,jfk).
next(26,22,cimbl).
next(25,22,ryend).
next(24,22,teb).
next(23,22,teb).
next(22,22,dandy).
next(21,22,ryend).
next(20,22,cri).
next(19,22,dandy).
next(18,22,jfk).
next(17,22,cimbl).
next(16,22,jfk).
next(15,22,ryend).
next(14,22,jfk).
next(13,22,lga).
next(12,22,dandy).
next(11,22,teb).
next(10,22,cri).
next(9,22,jfk).
next(8,22,cimbl).
next(7,22,dandy).
next(6,22,ryend).
next(5,22,lga).
next(4,22,cimbl).
next(3,22,dandy).
next(2,22,ryend).
next(1,22,cri).
next(0,22,ryend).
next(33,23,jfk).
next(32,23,lga).
next(31,23,dandy).
next(30,23,cri).
next(29,23,cimbl).
next(28,23,lga).
next(27,23,jfk).
next(26,23,cimbl).
next(25,23,ryend).
next(24,23,teb).
next(23,23,teb).
next(22,23,dandy).
next(21,23,ryend).
next(20,23,cri).
next(19,23,dandy).
next(18,23,jfk).
next(17,23,cimbl).
next(16,23,jfk).
next(15,23,ryend).
next(14,23,jfk).
next(13,23,lga).
next(12,23,dandy).
next(11,23,teb).
next(10,23,cri).
next(9,23,jfk).
next(8,23,cimbl).
next(7,23,dandy).
next(6,23,ryend).
next(5,23,lga).
next(4,23,cimbl).
next(3,23,dandy).
next(2,23,ryend).
next(1,23,cri).
next(0,23,ryend).
next(5,24,lga).
next(13,24,lga).
next(28,24,lga).
next(32,24,lga).
next(11,24,teb).
next(23,24,teb).
next(24,24,teb).
next(0,24,ryend).
next(2,24,ryend).
next(6,24,ryend).
next(15,24,ryend).
next(21,24,ryend).
next(25,24,ryend).
next(1,24,cri).
next(10,24,cri).
next(20,24,cri).
next(30,24,cri).
next(4,24,cimbl).
next(8,24,cimbl).
next(17,24,cimbl).
next(26,24,cimbl).
next(29,24,cimbl).
next(3,24,dandy).
next(7,24,dandy).
next(12,24,dandy).
next(19,24,dandy).
next(22,24,dandy).
next(31,24,dandy).
next(9,24,jfk).
next(14,24,jfk).
next(16,24,jfk).
next(18,24,jfk).
next(27,24,jfk).
next(33,24,jfk).
start(0,lga,0,0).
start(1,cri,0,0).
start(2,dandy,0,0).
start(3,dandy,0,0).
start(4,dandy,0,0).
start(5,jfk,0,0).
start(6,teb,0,0).
start(7,jfk,0,0).
start(8,ryend,0,0).
start(9,dandy,0,0).
start(10,ryend,0,0).
start(11,ryend,0,0).
start(12,cimbl,0,0).
start(13,ryend,0,0).
start(14,dandy,0,0).
start(15,lga,0,0).
start(16,jfk,0,0).
start(17,ryend,0,0).
start(18,jfk,0,0).
start(19,dandy,0,0).
start(20,ryend,0,0).
start(21,cri,0,0).
start(22,jfk,0,0).
start(23,cimbl,0,0).
start(24,teb,0,0).
start(25,cimbl,0,0).
start(26,lga,0,0).
start(27,cri,0,0).
start(28,jfk,0,0).
start(29,teb,0,0).
start(30,cimbl,0,0).
start(31,cri,0,0).
start(32,cimbl,0,0).
start(33,lga,0,0).
start(33,lga,1,0).
start(32,cri,1,15).
start(31,cri,1,0).
start(30,cimbl,1,0).
start(29,ryend,1,18).
start(28,jfk,1,0).
start(27,ryend,1,21).
start(26,cri,1,16).
start(25,teb,1,10).
start(24,cimbl,1,10).
start(23,cri,1,15).
start(22,cri,1,9).
start(21,jfk,1,9).
start(20,ryend,1,0).
start(19,jfk,1,31).
start(18,jfk,1,0).
start(17,ryend,1,0).
start(16,teb,1,29).
start(15,cri,1,16).
start(14,dandy,1,0).
start(13,dandy,1,10).
start(12,dandy,1,11).
start(11,ryend,1,0).
start(10,ryend,1,0).
start(9,jfk,1,31).
start(8,lga,1,23).
start(7,lga,1,16).
start(6,teb,1,0).
start(5,jfk,1,0).
start(4,ryend,1,10).
start(3,cimbl,1,11).
start(2,jfk,1,31).
start(1,cri,1,0).
start(0,lga,1,0).
start(33,lga,2,0).
start(32,cri,2,15).
start(31,jfk,2,9).
start(30,cimbl,2,0).
start(29,ryend,2,18).
start(28,cimbl,2,21).
start(27,teb,2,39).
start(26,cri,2,16).
start(25,lga,2,24).
start(24,cimbl,2,10).
start(23,dandy,2,40).
start(22,ryend,2,30).
start(21,lga,2,25).
start(20,ryend,2,0).
start(19,dandy,2,62).
start(18,jfk,2,0).
start(17,ryend,2,0).
start(16,teb,2,29).
start(15,cri,2,16).
start(14,cimbl,2,11).
start(13,teb,2,20).
start(12,ryend,2,21).
start(11,lga,2,23).
start(10,ryend,2,0).
start(9,cimbl,2,52).
start(8,lga,2,23).
start(7,dandy,2,37).
start(6,teb,2,0).
start(5,jfk,2,0).
start(4,ryend,2,10).
start(3,cimbl,2,11).
start(2,jfk,2,31).
start(1,teb,2,25).
start(0,lga,2,0).
start(33,lga,3,0).
start(32,cri,3,15).
start(31,jfk,3,9).
start(30,cri,3,15).
start(29,ryend,3,18).
start(28,cimbl,3,21).
start(27,teb,3,39).
start(26,ryend,3,37).
start(25,teb,3,38).
start(24,jfk,3,31).
start(23,dandy,3,40).
start(22,cri,3,51).
start(21,dandy,3,46).
start(20,ryend,3,0).
start(19,dandy,3,62).
start(18,cimbl,3,21).
start(17,lga,3,23).
start(16,cimbl,3,39).
start(15,cri,3,16).
start(14,cimbl,3,11).
start(13,lga,3,34).
start(12,dandy,3,31).
start(11,teb,3,37).
start(10,jfk,3,29).
start(9,cri,3,67).
start(8,jfk,3,39).
start(7,dandy,3,37).
start(6,teb,3,0).
start(5,jfk,3,0).
start(4,ryend,3,10).
start(3,cimbl,3,11).
start(2,jfk,3,31).
start(1,ryend,3,43).
start(0,lga,3,0).
start(33,lga,4,0).
start(32,cri,4,15).
start(31,lga,4,25).
start(30,dandy,4,40).
start(29,ryend,4,18).
start(28,cimbl,4,21).
start(27,cri,4,64).
start(26,teb,4,55).
start(25,ryend,4,56).
start(24,jfk,4,31).
start(23,dandy,4,40).
start(22,dandy,4,76).
start(21,dandy,4,46).
start(20,dandy,4,10).
start(19,jfk,4,93).
start(18,cimbl,4,21).
start(17,cimbl,4,33).
start(16,cimbl,4,39).
start(15,cimbl,4,31).
start(14,cimbl,4,11).
start(13,lga,4,34).
start(12,jfk,4,62).
start(11,lga,4,51).
start(10,jfk,4,29).
start(9,cri,4,67).
start(8,ryend,4,68).
start(7,ryend,4,47).
start(6,teb,4,0).
start(5,jfk,4,0).
start(4,teb,4,28).
start(3,cimbl,4,11).
start(2,jfk,4,31).
start(1,teb,4,61).
start(0,cri,4,16).
start(33,lga,5,0).
start(32,cri,5,15).
start(31,jfk,5,41).
start(30,ryend,5,50).
start(29,ryend,5,18).
start(28,cimbl,5,21).
start(27,cimbl,5,79).
start(26,cimbl,5,65).
start(25,cimbl,5,69).
start(24,dandy,5,62).
start(23,teb,5,50).
start(22,cri,5,101).
start(21,lga,5,67).
start(20,dandy,5,10).
start(19,dandy,5,124).
start(18,lga,5,31).
start(17,cimbl,5,33).
start(16,teb,5,49).
start(15,cri,5,46).
start(14,cimbl,5,11).
start(13,lga,5,34).
start(12,ryend,5,91).
start(11,lga,5,51).
start(10,cri,5,38).
start(9,cri,5,67).
start(8,ryend,5,68).
start(7,ryend,5,47).
start(6,teb,5,0).
start(5,jfk,5,0).
start(4,jfk,5,57).
start(3,cimbl,5,11).
start(2,jfk,5,31).
start(1,jfk,5,90).
start(0,cri,5,16).
start(33,jfk,6,16).
start(32,cri,6,15).
start(31,dandy,6,72).
start(30,ryend,6,50).
start(29,ryend,6,18).
start(28,ryend,6,34).
start(27,cimbl,6,79).
start(26,dandy,6,76).
start(25,teb,6,79).
start(24,ryend,6,72).
start(23,lga,6,64).
start(22,teb,6,126).
start(21,lga,6,67).
start(20,dandy,6,10).
start(19,lga,6,145).
start(18,teb,6,45).
start(17,lga,6,43).
start(16,dandy,6,59).
start(15,cri,6,46).
start(14,cimbl,6,11).
start(13,ryend,6,57).
start(12,cri,6,112).
start(11,cimbl,6,61).
start(10,cri,6,38).
start(9,cri,6,67).
start(8,ryend,6,68).
start(7,ryend,6,47).
start(6,cri,6,25).
start(5,jfk,6,0).
start(4,jfk,6,57).
start(3,cimbl,6,11).
start(2,jfk,6,31).
start(1,cimbl,6,111).
start(0,cri,6,16).
start(33,dandy,7,47).
start(32,cri,7,15).
start(31,dandy,7,72).
start(30,lga,7,73).
start(29,ryend,7,18).
start(28,dandy,7,44).
start(27,cimbl,7,79).
start(26,dandy,7,76).
start(25,teb,7,79).
start(24,ryend,7,72).
start(23,cimbl,7,74).
start(22,teb,7,126).
start(21,teb,7,81).
start(20,cri,7,35).
start(19,jfk,7,161).
start(18,jfk,7,74).
start(17,cri,7,59).
start(16,dandy,7,59).
start(15,cimbl,7,61).
start(14,cimbl,7,11).
start(13,lga,7,80).
start(12,ryend,7,133).
start(11,cimbl,7,61).
start(10,cri,7,38).
start(9,cri,7,67).
start(8,jfk,7,97).
start(7,ryend,7,47).
start(6,cri,7,25).
start(5,teb,7,29).
start(4,cimbl,7,78).
start(3,cri,7,26).
start(2,ryend,7,60).
start(1,cimbl,7,111).
start(0,cri,7,16).
start(33,dandy,8,47).
start(32,jfk,8,24).
start(31,dandy,8,72).
start(30,lga,8,73).
start(29,ryend,8,18).
start(28,teb,8,54).
start(27,dandy,8,90).
start(26,cimbl,8,87).
start(25,lga,8,93).
start(24,ryend,8,72).
start(23,cimbl,8,74).
start(22,teb,8,126).
start(21,teb,8,81).
start(20,dandy,8,60).
start(19,jfk,8,161).
start(18,teb,8,103).
start(17,cri,8,59).
start(16,dandy,8,59).
start(15,cimbl,8,61).
start(14,lga,8,21).
start(13,lga,8,80).
start(12,ryend,8,133).
start(11,cimbl,8,61).
start(10,cri,8,38).
start(9,cri,8,67).
start(8,jfk,8,97).
start(7,ryend,8,47).
start(6,jfk,8,34).
start(5,cimbl,8,39).
start(4,cimbl,8,78).
start(3,dandy,8,51).
start(2,teb,8,78).
start(1,lga,8,121).
start(0,ryend,8,37).
start(33,jfk,9,78).
start(32,lga,9,40).
start(31,dandy,9,72).
start(30,lga,9,73).
start(29,ryend,9,18).
start(28,teb,9,54).
start(27,dandy,9,90).
start(26,cimbl,9,87).
start(25,lga,9,93).
start(24,cimbl,9,85).
start(23,cri,9,89).
start(22,jfk,9,155).
start(21,teb,9,81).
start(20,dandy,9,60).
start(19,cimbl,9,182).
start(18,dandy,9,113).
start(17,cimbl,9,74).
start(16,cri,9,84).
start(15,cri,9,76).
start(14,cri,9,37).
start(13,ryend,9,103).
start(12,jfk,9,162).
start(11,cimbl,9,61).
start(10,cri,9,38).
start(9,cri,9,67).
start(8,ryend,9,126).
start(7,ryend,9,47).
start(6,jfk,9,34).
start(5,cimbl,9,39).
start(4,teb,9,88).
start(3,lga,9,72).
start(2,teb,9,78).
start(1,cri,9,137).
start(0,dandy,9,47).
start(33,jfk,10,78).
start(32,jfk,10,56).
start(31,dandy,10,72).
start(30,teb,10,87).
start(29,cimbl,10,31).
start(28,ryend,10,72).
start(27,teb,10,100).
start(26,cimbl,10,87).
start(25,lga,10,93).
start(24,cimbl,10,85).
start(23,teb,10,114).
start(22,jfk,10,155).
start(21,jfk,10,110).
start(20,dandy,10,60).
start(19,teb,10,192).
start(18,ryend,10,123).
start(17,cimbl,10,74).
start(16,lga,10,100).
start(15,lga,10,92).
start(14,lga,10,53).
start(13,ryend,10,103).
start(12,jfk,10,162).
start(11,cimbl,10,61).
start(10,cri,10,38).
start(9,cri,10,67).
start(8,ryend,10,126).
start(7,ryend,10,47).
start(6,ryend,10,63).
start(5,cimbl,10,39).
start(4,teb,10,88).
start(3,dandy,10,93).
start(2,teb,10,78).
start(1,dandy,10,162).
start(0,dandy,10,47).
start(33,jfk,11,78).
start(32,jfk,11,56).
start(31,cimbl,11,83).
start(30,lga,11,101).
start(29,dandy,11,42).
start(28,cimbl,11,85).
start(27,lga,11,114).
start(26,cimbl,11,87).
start(25,ryend,11,116).
start(24,cimbl,11,85).
start(23,teb,11,114).
start(22,dandy,11,186).
start(21,jfk,11,110).
start(20,dandy,11,60).
start(19,teb,11,192).
start(18,cri,11,144).
start(17,cimbl,11,74).
start(16,lga,11,100).
start(15,dandy,11,113).
start(14,lga,11,53).
start(13,jfk,11,132).
start(12,teb,11,191).
start(11,cimbl,11,61).
start(10,cri,11,38).
start(9,cri,11,67).
start(8,jfk,11,155).
start(7,cimbl,11,60).
start(6,cimbl,11,76).
start(5,cimbl,11,39).
start(4,cri,11,113).
start(3,cri,11,118).
start(2,cri,11,103).
start(1,dandy,11,162).
start(0,cri,11,72).
start(33,lga,12,94).
start(32,teb,12,85).
start(31,dandy,12,94).
start(30,lga,12,101).
start(29,dandy,12,42).
start(28,cimbl,12,85).
start(27,ryend,12,137).
start(26,cimbl,12,87).
start(25,ryend,12,116).
start(24,cimbl,12,85).
start(23,ryend,12,132).
start(22,cimbl,12,197).
start(21,ryend,12,139).
start(20,ryend,12,70).
start(19,teb,12,192).
start(18,jfk,12,153).
start(17,cimbl,12,74).
start(16,lga,12,100).
start(15,dandy,12,113).
start(14,lga,12,53).
start(13,teb,12,161).
start(12,dandy,12,201).
start(11,teb,12,71).
start(10,cri,12,38).
start(9,cri,12,67).
start(8,lga,12,171).
start(7,cimbl,12,60).
start(6,cimbl,12,76).
start(5,lga,12,49).
start(4,teb,12,138).
start(3,cri,12,118).
start(2,cri,12,103).
start(1,dandy,12,162).
start(0,cri,12,72).
start(33,teb,13,108).
start(32,cimbl,13,95).
start(31,dandy,13,94).
start(30,lga,13,101).
start(29,dandy,13,42).
start(28,jfk,13,106).
start(27,ryend,13,137).
start(26,cimbl,13,87).
start(25,cri,13,137).
start(24,cimbl,13,85).
start(23,ryend,13,132).
start(22,dandy,13,208).
start(21,ryend,13,139).
start(20,ryend,13,70).
start(19,cri,13,217).
start(18,jfk,13,153).
start(17,dandy,13,85).
start(16,jfk,13,116).
start(15,jfk,13,144).
start(14,jfk,13,69).
start(13,ryend,13,179).
start(12,dandy,13,201).
start(11,teb,13,71).
start(10,cri,13,38).
start(9,cri,13,67).
start(8,lga,13,171).
start(7,cimbl,13,60).
start(6,cimbl,13,76).
start(5,lga,13,49).
start(4,cri,13,163).
start(3,cri,13,118).
start(2,dandy,13,128).
start(1,dandy,13,162).
start(0,cri,13,72).
start(33,ryend,14,126).
start(32,cimbl,14,95).
start(31,dandy,14,94).
start(30,teb,14,115).
start(29,lga,14,63).
start(28,dandy,14,137).
start(27,ryend,14,137).
start(26,lga,14,97).
start(25,cimbl,14,152).
start(24,cimbl,14,85).
start(23,dandy,14,142).
start(22,dandy,14,208).
start(21,ryend,14,139).
start(20,cimbl,14,83).
start(19,ryend,14,238).
start(18,jfk,14,153).
start(17,jfk,14,116).
start(16,jfk,14,116).
start(15,ryend,14,173).
start(14,lga,14,85).
start(13,teb,14,197).
start(12,dandy,14,201).
start(11,teb,14,71).
start(10,teb,14,63).
start(9,cimbl,14,82).
start(8,cri,14,187).
start(7,lga,14,70).
start(6,cimbl,14,76).
start(5,lga,14,49).
start(4,cimbl,14,178).
start(3,lga,14,134).
start(2,teb,14,138).
start(1,dandy,14,162).
start(0,ryend,14,93).
start(33,jfk,15,155).
start(32,cimbl,15,95).
start(31,dandy,15,94).
start(30,teb,15,115).
start(29,dandy,15,84).
start(28,teb,15,147).
start(27,ryend,15,137).
start(26,lga,15,97).
start(25,cimbl,15,152).
start(24,dandy,15,96).
start(23,cri,15,167).
start(22,dandy,15,208).
start(21,jfk,15,168).
start(20,cimbl,15,83).
start(19,dandy,15,248).
start(18,jfk,15,153).
start(17,cri,15,125).
start(16,jfk,15,116).
start(15,ryend,15,173).
start(14,lga,15,85).
start(13,cri,15,222).
start(12,dandy,15,201).
start(11,teb,15,71).
start(10,jfk,15,92).
start(9,ryend,15,95).
start(8,jfk,15,196).
start(7,lga,15,70).
start(6,cimbl,15,76).
start(5,lga,15,49).
start(4,cimbl,15,178).
start(3,lga,15,134).
start(2,teb,15,138).
start(1,dandy,15,162).
start(0,cimbl,15,106).
start(33,jfk,16,155).
start(32,cimbl,16,95).
start(31,cimbl,16,105).
start(30,teb,16,115).
start(29,lga,16,105).
start(28,ryend,16,165).
start(27,ryend,16,137).
start(26,lga,16,97).
start(25,cimbl,16,152).
start(24,dandy,16,96).
start(23,cimbl,16,182).
start(22,dandy,16,208).
start(21,jfk,16,168).
start(20,cimbl,16,83).
start(19,dandy,16,248).
start(18,jfk,16,153).
start(17,ryend,16,146).
start(16,jfk,16,116).
start(15,ryend,16,173).
start(14,jfk,16,101).
start(13,teb,16,247).
start(12,cri,16,226).
start(11,teb,16,71).
start(10,cimbl,16,113).
start(9,lga,16,118).
start(8,teb,16,225).
start(7,dandy,16,91).
start(6,cimbl,16,76).
start(5,lga,16,49).
start(4,lga,16,188).
start(3,dandy,16,155).
start(2,cimbl,16,148).
start(1,lga,16,183).
start(0,cimbl,16,106).
start(33,jfk,17,155).
start(32,cimbl,17,95).
start(31,cimbl,17,105).
start(30,teb,17,115).
start(29,ryend,17,128).
start(28,cri,17,186).
start(27,jfk,17,166).
start(26,cri,17,113).
start(25,jfk,17,173).
start(24,dandy,17,96).
start(23,teb,17,192).
start(22,dandy,17,208).
start(21,jfk,17,168).
start(20,cimbl,17,83).
start(19,dandy,17,248).
start(18,cri,17,162).
start(17,ryend,17,146).
start(16,cri,17,125).
start(15,ryend,17,173).
start(14,jfk,17,101).
start(13,dandy,17,257).
start(12,lga,17,242).
start(11,teb,17,71).
start(10,cimbl,17,113).
start(9,teb,17,132).
start(8,teb,17,225).
start(7,dandy,17,91).
start(6,jfk,17,97).
start(5,lga,17,49).
start(4,lga,17,188).
start(3,cimbl,17,166).
start(2,jfk,17,169).
start(1,ryend,17,206).
start(0,ryend,17,119).
start(33,jfk,18,155).
start(32,cimbl,18,95).
start(31,cimbl,18,105).
start(30,teb,18,115).
start(29,lga,18,151).
start(28,cri,18,186).
start(27,cri,18,175).
start(26,cri,18,113).
start(25,lga,18,189).
start(24,cimbl,18,107).
start(23,teb,18,192).
start(22,dandy,18,208).
start(21,ryend,18,197).
start(20,jfk,18,104).
start(19,dandy,18,248).
start(18,cri,18,162).
start(17,teb,18,164).
start(16,teb,18,150).
start(15,ryend,18,173).
start(14,jfk,18,101).
start(13,lga,18,278).
start(12,lga,18,242).
start(11,teb,18,71).
start(10,cimbl,18,113).
start(9,teb,18,132).
start(8,dandy,18,235).
start(7,dandy,18,91).
start(6,dandy,18,128).
start(5,cimbl,18,59).
start(4,cimbl,18,198).
start(3,ryend,18,179).
start(2,teb,18,198).
start(1,ryend,18,206).
start(0,lga,18,142).
start(33,jfk,19,155).
start(32,cimbl,19,95).
start(31,cimbl,19,105).
start(30,cri,19,140).
start(29,lga,19,151).
start(28,cri,19,186).
start(27,cri,19,175).
start(26,dandy,19,138).
start(25,ryend,19,212).
start(24,ryend,19,120).
start(23,teb,19,192).
start(22,teb,19,218).
start(21,ryend,19,197).
start(20,cri,19,113).
start(19,dandy,19,248).
start(18,cri,19,162).
start(17,cimbl,19,174).
start(16,jfk,19,179).
start(15,ryend,19,173).
start(14,jfk,19,101).
start(13,lga,19,278).
start(12,dandy,19,263).
start(11,teb,19,71).
start(10,cimbl,19,113).
start(9,jfk,19,161).
start(8,dandy,19,235).
start(7,dandy,19,91).
start(6,dandy,19,128).
start(5,jfk,19,80).
start(4,jfk,19,219).
start(3,dandy,19,189).
start(2,cimbl,19,208).
start(1,teb,19,224).
start(0,ryend,19,165).
start(33,jfk,20,155).
start(32,ryend,20,108).
start(31,teb,20,115).
start(30,cri,20,140).
start(29,lga,20,151).
start(28,cri,20,186).
start(27,cri,20,175).
start(26,teb,20,148).
start(25,ryend,20,212).
start(24,cri,20,141).
start(23,teb,20,192).
start(22,dandy,20,228).
start(21,ryend,20,197).
start(20,cri,20,113).
start(19,dandy,20,248).
start(18,jfk,20,171).
start(17,cimbl,20,174).
start(16,jfk,20,179).
start(15,ryend,20,173).
start(14,jfk,20,101).
start(13,lga,20,278).
start(12,dandy,20,263).
start(11,teb,20,71).
start(10,cimbl,20,113).
start(9,jfk,20,161).
start(8,lga,20,256).
start(7,dandy,20,91).
start(6,ryend,20,138).
start(5,cri,20,89).
start(4,jfk,20,219).
start(3,dandy,20,189).
start(2,cimbl,20,208).
start(1,dandy,20,234).
start(0,ryend,20,165).
start(33,jfk,21,155).
start(32,cri,21,129).
start(31,dandy,21,125).
start(30,cri,21,140).
start(29,cimbl,21,161).
start(28,lga,21,202).
start(27,jfk,21,184).
start(26,lga,21,162).
start(25,ryend,21,212).
start(24,teb,21,166).
start(23,teb,21,192).
start(22,dandy,21,228).
start(21,ryend,21,197).
start(20,cri,21,113).
start(19,dandy,21,248).
start(18,jfk,21,171).
start(17,cimbl,21,174).
start(16,jfk,21,179).
start(15,ryend,21,173).
start(14,jfk,21,101).
start(13,lga,21,278).
start(12,dandy,21,263).
start(11,teb,21,71).
start(10,ryend,21,126).
start(9,jfk,21,161).
start(8,cimbl,21,266).
start(7,dandy,21,91).
start(6,ryend,21,138).
start(5,lga,21,105).
start(4,cimbl,21,240).
start(3,dandy,21,189).
start(2,ryend,21,221).
start(1,cri,21,259).
start(0,ryend,21,165).
start(33,jfk,22,155).
start(32,lga,22,145).
start(31,dandy,22,125).
start(30,cri,22,140).
start(29,cimbl,22,161).
start(28,lga,22,202).
start(27,jfk,22,184).
start(26,cimbl,22,172).
start(25,ryend,22,212).
start(24,teb,22,166).
start(23,teb,22,192).
start(22,dandy,22,228).
start(21,ryend,22,197).
start(20,cri,22,113).
start(19,dandy,22,248).
start(18,jfk,22,171).
start(17,cimbl,22,174).
start(16,jfk,22,179).
start(15,ryend,22,173).
start(14,jfk,22,101).
start(13,lga,22,278).
start(12,dandy,22,263).
start(11,teb,22,71).
start(10,cri,22,147).
start(9,jfk,22,161).
start(8,cimbl,22,266).
start(7,dandy,22,91).
start(6,ryend,22,138).
start(5,lga,22,105).
start(4,cimbl,22,240).
start(3,dandy,22,189).
start(2,ryend,22,221).
start(1,cri,22,259).
start(0,ryend,22,165).
start(33,jfk,23,155).
start(32,lga,23,145).
start(31,dandy,23,125).
start(30,cri,23,140).
start(29,cimbl,23,161).
start(28,lga,23,202).
start(27,jfk,23,184).
start(26,cimbl,23,172).
start(25,ryend,23,212).
start(24,teb,23,166).
start(23,teb,23,192).
start(22,dandy,23,228).
start(21,ryend,23,197).
start(20,cri,23,113).
start(19,dandy,23,248).
start(18,jfk,23,171).
start(17,cimbl,23,174).
start(16,jfk,23,179).
start(15,ryend,23,173).
start(14,jfk,23,101).
start(13,lga,23,278).
start(12,dandy,23,263).
start(11,teb,23,71).
start(10,cri,23,147).
start(9,jfk,23,161).
start(8,cimbl,23,266).
start(7,dandy,23,91).
start(6,ryend,23,138).
start(5,lga,23,105).
start(4,cimbl,23,240).
start(3,dandy,23,189).
start(2,ryend,23,221).
start(1,cri,23,259).
start(0,ryend,23,165).
start(0,ryend,24,165).
start(1,cri,24,259).
start(2,ryend,24,221).
start(3,dandy,24,189).
start(4,cimbl,24,240).
start(5,lga,24,105).
start(6,ryend,24,138).
start(7,dandy,24,91).
start(8,cimbl,24,266).
start(9,jfk,24,161).
start(10,cri,24,147).
start(11,teb,24,71).
start(12,dandy,24,263).
start(13,lga,24,278).
start(14,jfk,24,101).
start(15,ryend,24,173).
start(16,jfk,24,179).
start(17,cimbl,24,174).
start(18,jfk,24,171).
start(19,dandy,24,248).
start(20,cri,24,113).
start(21,ryend,24,197).
start(22,dandy,24,228).
start(23,teb,24,192).
start(24,teb,24,166).
start(25,ryend,24,212).
start(26,cimbl,24,172).
start(27,jfk,24,184).
start(28,lga,24,202).
start(29,cimbl,24,161).
start(30,cri,24,140).
start(31,dandy,24,125).
start(32,lga,24,145).
start(33,jfk,24,155).
arrival(0,lga,1,0).
arrival(1,cri,1,0).
arrival(2,jfk,1,12).
arrival(3,cimbl,1,4).
arrival(4,ryend,1,4).
arrival(5,jfk,1,0).
arrival(6,teb,1,0).
arrival(7,lga,1,6).
arrival(8,lga,1,9).
arrival(9,jfk,1,12).
arrival(10,ryend,1,0).
arrival(11,ryend,1,0).
arrival(12,dandy,1,4).
arrival(13,dandy,1,4).
arrival(14,dandy,1,0).
arrival(15,cri,1,6).
arrival(16,teb,1,11).
arrival(17,ryend,1,0).
arrival(18,jfk,1,0).
arrival(19,jfk,1,12).
arrival(20,ryend,1,0).
arrival(21,jfk,1,3).
arrival(22,cri,1,3).
arrival(23,cri,1,6).
arrival(24,cimbl,1,4).
arrival(25,teb,1,4).
arrival(26,cri,1,6).
arrival(27,ryend,1,8).
arrival(28,jfk,1,0).
arrival(29,ryend,1,7).
arrival(30,cimbl,1,0).
arrival(31,cri,1,0).
arrival(32,cri,1,6).
arrival(33,lga,1,0).
arrival(0,lga,2,0).
arrival(1,teb,2,10).
arrival(2,jfk,2,31).
arrival(3,cimbl,2,11).
arrival(4,ryend,2,10).
arrival(5,jfk,2,0).
arrival(6,teb,2,0).
arrival(7,dandy,2,24).
arrival(8,lga,2,23).
arrival(9,cimbl,2,39).
arrival(10,ryend,2,0).
arrival(11,lga,2,9).
arrival(12,ryend,2,15).
arrival(13,teb,2,14).
arrival(14,cimbl,2,4).
arrival(15,cri,2,16).
arrival(16,teb,2,29).
arrival(17,ryend,2,0).
arrival(18,jfk,2,0).
arrival(19,dandy,2,43).
arrival(20,ryend,2,0).
arrival(21,lga,2,15).
arrival(22,ryend,2,17).
arrival(23,dandy,2,25).
arrival(24,cimbl,2,10).
arrival(25,lga,2,15).
arrival(26,cri,2,16).
arrival(27,teb,2,28).
arrival(28,cimbl,2,8).
arrival(29,ryend,2,18).
arrival(30,cimbl,2,0).
arrival(31,jfk,2,3).
arrival(32,cri,2,15).
arrival(33,lga,2,0).
arrival(0,lga,3,0).
arrival(1,ryend,3,32).
arrival(2,jfk,3,31).
arrival(3,cimbl,3,11).
arrival(4,ryend,3,10).
arrival(5,jfk,3,0).
arrival(6,teb,3,0).
arrival(7,dandy,3,37).
arrival(8,jfk,3,29).
arrival(9,cri,3,58).
arrival(10,jfk,3,11).
arrival(11,teb,3,28).
arrival(12,dandy,3,25).
arrival(13,lga,3,25).
arrival(14,cimbl,3,11).
arrival(15,cri,3,16).
arrival(16,cimbl,3,33).
arrival(17,lga,3,9).
arrival(18,cimbl,3,8).
arrival(19,dandy,3,62).
arrival(20,ryend,3,0).
arrival(21,dandy,3,33).
arrival(22,cri,3,38).
arrival(23,dandy,3,40).
arrival(24,jfk,3,18).
arrival(25,teb,3,29).
arrival(26,ryend,3,24).
arrival(27,teb,3,39).
arrival(28,cimbl,3,21).
arrival(29,ryend,3,18).
arrival(30,cri,3,6).
arrival(31,jfk,3,9).
arrival(32,cri,3,15).
arrival(33,lga,3,0).
arrival(0,cri,4,6).
arrival(1,teb,4,50).
arrival(2,jfk,4,31).
arrival(3,cimbl,4,11).
arrival(4,teb,4,17).
arrival(5,jfk,4,0).
arrival(6,teb,4,0).
arrival(7,ryend,4,41).
arrival(8,ryend,4,50).
arrival(9,cri,4,67).
arrival(10,jfk,4,29).
arrival(11,lga,4,42).
arrival(12,jfk,4,43).
arrival(13,lga,4,34).
arrival(14,cimbl,4,11).
arrival(15,cimbl,4,22).
arrival(16,cimbl,4,39).
arrival(17,cimbl,4,27).
arrival(18,cimbl,4,21).
arrival(19,jfk,4,74).
arrival(20,dandy,4,4).
arrival(21,dandy,4,46).
arrival(22,dandy,4,61).
arrival(23,dandy,4,40).
arrival(24,jfk,4,31).
arrival(25,ryend,4,45).
arrival(26,teb,4,44).
arrival(27,cri,4,49).
arrival(28,cimbl,4,21).
arrival(29,ryend,4,18).
arrival(30,dandy,4,25).
arrival(31,lga,4,15).
arrival(32,cri,4,15).
arrival(33,lga,4,0).
arrival(0,cri,5,16).
arrival(1,jfk,5,72).
arrival(2,jfk,5,31).
arrival(3,cimbl,5,11).
arrival(4,jfk,5,39).
arrival(5,jfk,5,0).
arrival(6,teb,5,0).
arrival(7,ryend,5,47).
arrival(8,ryend,5,68).
arrival(9,cri,5,67).
arrival(10,cri,5,32).
arrival(11,lga,5,51).
arrival(12,ryend,5,73).
arrival(13,lga,5,34).
arrival(14,cimbl,5,11).
arrival(15,cri,5,37).
arrival(16,teb,5,43).
arrival(17,cimbl,5,33).
arrival(18,lga,5,25).
arrival(19,dandy,5,105).
arrival(20,dandy,5,10).
arrival(21,lga,5,54).
arrival(22,cri,5,86).
arrival(23,teb,5,44).
arrival(24,dandy,5,43).
arrival(25,cimbl,5,61).
arrival(26,cimbl,5,59).
arrival(27,cimbl,5,70).
arrival(28,cimbl,5,21).
arrival(29,ryend,5,18).
arrival(30,ryend,5,44).
arrival(31,jfk,5,31).
arrival(32,cri,5,15).
arrival(33,lga,5,0).
arrival(0,cri,6,16).
arrival(1,cimbl,6,98).
arrival(2,jfk,6,31).
arrival(3,cimbl,6,11).
arrival(4,jfk,6,57).
arrival(5,jfk,6,0).
arrival(6,cri,6,10).
arrival(7,ryend,6,47).
arrival(8,ryend,6,68).
arrival(9,cri,6,67).
arrival(10,cri,6,38).
arrival(11,cimbl,6,55).
arrival(12,cri,6,99).
arrival(13,ryend,6,43).
arrival(14,cimbl,6,11).
arrival(15,cri,6,46).
arrival(16,dandy,6,53).
arrival(17,lga,6,37).
arrival(18,teb,6,36).
arrival(19,lga,6,132).
arrival(20,dandy,6,10).
arrival(21,lga,6,67).
arrival(22,teb,6,111).
arrival(23,lga,6,55).
arrival(24,ryend,6,66).
arrival(25,teb,6,73).
arrival(26,dandy,6,69).
arrival(27,cimbl,6,79).
arrival(28,ryend,6,26).
arrival(29,ryend,6,18).
arrival(30,ryend,6,50).
arrival(31,dandy,6,53).
arrival(32,cri,6,15).
arrival(33,jfk,6,6).
arrival(0,cri,7,16).
arrival(1,cimbl,7,111).
arrival(2,ryend,7,42).
arrival(3,cri,7,17).
arrival(4,cimbl,7,65).
arrival(5,teb,7,11).
arrival(6,cri,7,25).
arrival(7,ryend,7,47).
arrival(8,jfk,7,79).
arrival(9,cri,7,67).
arrival(10,cri,7,38).
arrival(11,cimbl,7,61).
arrival(12,ryend,7,120).
arrival(13,lga,7,66).
arrival(14,cimbl,7,11).
arrival(15,cimbl,7,52).
arrival(16,dandy,7,59).
arrival(17,cri,7,49).
arrival(18,jfk,7,56).
arrival(19,jfk,7,151).
arrival(20,cri,7,20).
arrival(21,teb,7,72).
arrival(22,teb,7,126).
arrival(23,cimbl,7,68).
arrival(24,ryend,7,72).
arrival(25,teb,7,79).
arrival(26,dandy,7,76).
arrival(27,cimbl,7,79).
arrival(28,dandy,7,38).
arrival(29,ryend,7,18).
arrival(30,lga,7,59).
arrival(31,dandy,7,72).
arrival(32,cri,7,15).
arrival(33,dandy,7,28).
arrival(0,ryend,8,24).
arrival(1,lga,8,115).
arrival(2,teb,8,67).
arrival(3,dandy,8,36).
arrival(4,cimbl,8,78).
arrival(5,cimbl,8,33).
arrival(6,jfk,8,28).
arrival(7,ryend,8,47).
arrival(8,jfk,8,97).
arrival(9,cri,8,67).
arrival(10,cri,8,38).
arrival(11,cimbl,8,61).
arrival(12,ryend,8,133).
arrival(13,lga,8,80).
arrival(14,lga,8,15).
arrival(15,cimbl,8,61).
arrival(16,dandy,8,59).
arrival(17,cri,8,59).
arrival(18,teb,8,85).
arrival(19,jfk,8,161).
arrival(20,dandy,8,45).
arrival(21,teb,8,81).
arrival(22,teb,8,126).
arrival(23,cimbl,8,74).
arrival(24,ryend,8,72).
arrival(25,lga,8,84).
arrival(26,cimbl,8,80).
arrival(27,dandy,8,83).
arrival(28,teb,8,48).
arrival(29,ryend,8,18).
arrival(30,lga,8,73).
arrival(31,dandy,8,72).
arrival(32,jfk,8,18).
arrival(33,dandy,8,47).
arrival(0,dandy,9,41).
arrival(1,cri,9,127).
arrival(2,teb,9,78).
arrival(3,lga,9,59).
arrival(4,teb,9,82).
arrival(5,cimbl,9,39).
arrival(6,jfk,9,34).
arrival(7,ryend,9,47).
arrival(8,ryend,9,108).
arrival(9,cri,9,67).
arrival(10,cri,9,38).
arrival(11,cimbl,9,61).
arrival(12,jfk,9,144).
arrival(13,ryend,9,89).
arrival(14,cri,9,27).
arrival(15,cri,9,67).
arrival(16,cri,9,69).
arrival(17,cimbl,9,65).
arrival(18,dandy,9,107).
arrival(19,cimbl,9,169).
arrival(20,dandy,9,60).
arrival(21,teb,9,81).
arrival(22,jfk,9,137).
arrival(23,cri,9,80).
arrival(24,cimbl,9,77).
arrival(25,lga,9,93).
arrival(26,cimbl,9,87).
arrival(27,dandy,9,90).
arrival(28,teb,9,54).
arrival(29,ryend,9,18).
arrival(30,lga,9,73).
arrival(31,dandy,9,72).
arrival(32,lga,9,30).
arrival(33,jfk,9,59).
arrival(0,dandy,10,47).
arrival(1,dandy,10,147).
arrival(2,teb,10,78).
arrival(3,dandy,10,80).
arrival(4,teb,10,88).
arrival(5,cimbl,10,39).
arrival(6,ryend,10,45).
arrival(7,ryend,10,47).
arrival(8,ryend,10,126).
arrival(9,cri,10,67).
arrival(10,cri,10,38).
arrival(11,cimbl,10,61).
arrival(12,jfk,10,162).
arrival(13,ryend,10,103).
arrival(14,lga,10,43).
arrival(15,lga,10,82).
arrival(16,lga,10,90).
arrival(17,cimbl,10,74).
arrival(18,ryend,10,117).
arrival(19,teb,10,186).
arrival(20,dandy,10,60).
arrival(21,jfk,10,92).
arrival(22,jfk,10,155).
arrival(23,teb,10,99).
arrival(24,cimbl,10,85).
arrival(25,lga,10,93).
arrival(26,cimbl,10,87).
arrival(27,teb,10,94).
arrival(28,ryend,10,61).
arrival(29,cimbl,10,23).
arrival(30,teb,10,78).
arrival(31,dandy,10,72).
arrival(32,jfk,10,46).
arrival(33,jfk,10,78).
arrival(0,cri,11,57).
arrival(1,dandy,11,162).
arrival(2,cri,11,88).
arrival(3,cri,11,103).
arrival(4,cri,11,98).
arrival(5,cimbl,11,39).
arrival(6,cimbl,11,68).
arrival(7,cimbl,11,52).
arrival(8,jfk,11,137).
arrival(9,cri,11,67).
arrival(10,cri,11,38).
arrival(11,cimbl,11,61).
arrival(12,teb,11,173).
arrival(13,jfk,11,114).
arrival(14,lga,11,53).
arrival(15,dandy,11,100).
arrival(16,lga,11,100).
arrival(17,cimbl,11,74).
arrival(18,cri,11,131).
arrival(19,teb,11,192).
arrival(20,dandy,11,60).
arrival(21,jfk,11,110).
arrival(22,dandy,11,167).
arrival(23,teb,11,114).
arrival(24,cimbl,11,85).
arrival(25,ryend,11,102).
arrival(26,cimbl,11,87).
arrival(27,lga,11,105).
arrival(28,cimbl,11,77).
arrival(29,dandy,11,35).
arrival(30,lga,11,92).
arrival(31,cimbl,11,76).
arrival(32,jfk,11,56).
arrival(33,jfk,11,78).
arrival(0,cri,12,72).
arrival(1,dandy,12,162).
arrival(2,cri,12,103).
arrival(3,cri,12,118).
arrival(4,teb,12,123).
arrival(5,lga,12,43).
arrival(6,cimbl,12,76).
arrival(7,cimbl,12,60).
arrival(8,lga,12,161).
arrival(9,cri,12,67).
arrival(10,cri,12,38).
arrival(11,teb,12,65).
arrival(12,dandy,12,195).
arrival(13,teb,12,143).
arrival(14,lga,12,53).
arrival(15,dandy,12,113).
arrival(16,lga,12,100).
arrival(17,cimbl,12,74).
arrival(18,jfk,12,147).
arrival(19,teb,12,192).
arrival(20,ryend,12,64).
arrival(21,ryend,12,121).
arrival(22,cimbl,12,190).
arrival(23,ryend,12,121).
arrival(24,cimbl,12,85).
arrival(25,ryend,12,116).
arrival(26,cimbl,12,87).
arrival(27,ryend,12,123).
arrival(28,cimbl,12,85).
arrival(29,dandy,12,42).
arrival(30,lga,12,101).
arrival(31,dandy,12,87).
arrival(32,teb,12,67).
arrival(33,lga,12,84).
arrival(0,cri,13,72).
arrival(1,dandy,13,162).
arrival(2,dandy,13,113).
arrival(3,cri,13,118).
arrival(4,cri,13,148).
arrival(5,lga,13,49).
arrival(6,cimbl,13,76).
arrival(7,cimbl,13,60).
arrival(8,lga,13,171).
arrival(9,cri,13,67).
arrival(10,cri,13,38).
arrival(11,teb,13,71).
arrival(12,dandy,13,201).
arrival(13,ryend,13,168).
arrival(14,jfk,13,59).
arrival(15,jfk,13,125).
arrival(16,jfk,13,106).
arrival(17,dandy,13,78).
arrival(18,jfk,13,153).
arrival(19,cri,13,202).
arrival(20,ryend,13,70).
arrival(21,ryend,13,139).
arrival(22,dandy,13,201).
arrival(23,ryend,13,132).
arrival(24,cimbl,13,85).
arrival(25,cri,13,124).
arrival(26,cimbl,13,87).
arrival(27,ryend,13,137).
arrival(28,jfk,13,93).
arrival(29,dandy,13,42).
arrival(30,lga,13,101).
arrival(31,dandy,13,94).
arrival(32,cimbl,13,89).
arrival(33,teb,13,99).
arrival(0,ryend,14,80).
arrival(1,dandy,14,162).
arrival(2,teb,14,132).
arrival(3,lga,14,124).
arrival(4,cimbl,14,169).
arrival(5,lga,14,49).
arrival(6,cimbl,14,76).
arrival(7,lga,14,64).
arrival(8,cri,14,177).
arrival(9,cimbl,14,73).
arrival(10,teb,14,48).
arrival(11,teb,14,71).
arrival(12,dandy,14,201).
arrival(13,teb,14,186).
arrival(14,lga,14,75).
arrival(15,ryend,14,155).
arrival(16,jfk,14,116).
arrival(17,jfk,14,97).
arrival(18,jfk,14,153).
arrival(19,ryend,14,225).
arrival(20,cimbl,14,75).
arrival(21,ryend,14,139).
arrival(22,dandy,14,208).
arrival(23,dandy,14,136).
arrival(24,cimbl,14,85).
arrival(25,cimbl,14,143).
arrival(26,lga,14,91).
arrival(27,ryend,14,137).
arrival(28,dandy,14,118).
arrival(29,lga,14,50).
arrival(30,teb,14,106).
arrival(31,dandy,14,94).
arrival(32,cimbl,14,95).
arrival(33,ryend,14,115).
arrival(0,cimbl,15,98).
arrival(1,dandy,15,162).
arrival(2,teb,15,138).
arrival(3,lga,15,134).
arrival(4,cimbl,15,178).
arrival(5,lga,15,49).
arrival(6,cimbl,15,76).
arrival(7,lga,15,70).
arrival(8,jfk,15,190).
arrival(9,ryend,15,87).
arrival(10,jfk,15,74).
arrival(11,teb,15,71).
arrival(12,dandy,15,201).
arrival(13,cri,15,207).
arrival(14,lga,15,85).
arrival(15,ryend,15,173).
arrival(16,jfk,15,116).
arrival(17,cri,15,119).
arrival(18,jfk,15,153).
arrival(19,dandy,15,242).
arrival(20,cimbl,15,83).
arrival(21,jfk,15,150).
arrival(22,dandy,15,208).
arrival(23,cri,15,152).
arrival(24,dandy,15,89).
arrival(25,cimbl,15,152).
arrival(26,lga,15,97).
arrival(27,ryend,15,137).
arrival(28,teb,15,141).
arrival(29,dandy,15,71).
arrival(30,teb,15,115).
arrival(31,dandy,15,94).
arrival(32,cimbl,15,95).
arrival(33,jfk,15,137).
arrival(0,cimbl,16,106).
arrival(1,lga,16,170).
arrival(2,cimbl,16,142).
arrival(3,dandy,16,142).
arrival(4,lga,16,182).
arrival(5,lga,16,49).
arrival(6,cimbl,16,76).
arrival(7,dandy,16,78).
arrival(8,teb,16,207).
arrival(9,lga,16,104).
arrival(10,cimbl,16,100).
arrival(11,teb,16,71).
arrival(12,cri,16,211).
arrival(13,teb,16,232).
arrival(14,jfk,16,91).
arrival(15,ryend,16,173).
arrival(16,jfk,16,116).
arrival(17,ryend,16,133).
arrival(18,jfk,16,153).
arrival(19,dandy,16,248).
arrival(20,cimbl,16,83).
arrival(21,jfk,16,168).
arrival(22,dandy,16,208).
arrival(23,cimbl,16,173).
arrival(24,dandy,16,96).
arrival(25,cimbl,16,152).
arrival(26,lga,16,97).
arrival(27,ryend,16,137).
arrival(28,ryend,16,154).
arrival(29,lga,16,92).
arrival(30,teb,16,115).
arrival(31,cimbl,16,98).
arrival(32,cimbl,16,95).
arrival(33,jfk,16,155).
arrival(0,ryend,17,111).
arrival(1,ryend,17,192).
arrival(2,jfk,17,156).
arrival(3,cimbl,17,159).
arrival(4,lga,17,188).
arrival(5,lga,17,49).
arrival(6,jfk,17,84).
arrival(7,dandy,17,91).
arrival(8,teb,17,225).
arrival(9,teb,17,123).
arrival(10,cimbl,17,113).
arrival(11,teb,17,71).
arrival(12,lga,17,232).
arrival(13,dandy,17,251).
arrival(14,jfk,17,101).
arrival(15,ryend,17,173).
arrival(16,cri,17,119).
arrival(17,ryend,17,146).
arrival(18,cri,17,156).
arrival(19,dandy,17,248).
arrival(20,cimbl,17,83).
arrival(21,jfk,17,168).
arrival(22,dandy,17,208).
arrival(23,teb,17,186).
arrival(24,dandy,17,96).
arrival(25,jfk,17,160).
arrival(26,cri,17,103).
arrival(27,jfk,17,148).
arrival(28,cri,17,173).
arrival(29,ryend,17,114).
arrival(30,teb,17,115).
arrival(31,cimbl,17,105).
arrival(32,cimbl,17,95).
arrival(33,jfk,17,155).
arrival(0,lga,18,128).
arrival(1,ryend,18,206).
arrival(2,teb,18,180).
arrival(3,ryend,18,171).
arrival(4,cimbl,18,192).
arrival(5,cimbl,18,53).
arrival(6,dandy,18,109).
arrival(7,dandy,18,91).
arrival(8,dandy,18,229).
arrival(9,teb,18,132).
arrival(10,cimbl,18,113).
arrival(11,teb,18,71).
arrival(12,lga,18,242).
arrival(13,lga,18,265).
arrival(14,jfk,18,101).
arrival(15,ryend,18,173).
arrival(16,teb,18,135).
arrival(17,teb,18,153).
arrival(18,cri,18,162).
arrival(19,dandy,18,248).
arrival(20,jfk,18,91).
arrival(21,ryend,18,179).
arrival(22,dandy,18,208).
arrival(23,teb,18,192).
arrival(24,cimbl,18,100).
arrival(25,lga,18,179).
arrival(26,cri,18,113).
arrival(27,cri,18,169).
arrival(28,cri,18,186).
arrival(29,lga,18,137).
arrival(30,teb,18,115).
arrival(31,cimbl,18,105).
arrival(32,cimbl,18,95).
arrival(33,jfk,18,155).
arrival(0,ryend,19,151).
arrival(1,teb,19,213).
arrival(2,cimbl,19,202).
arrival(3,dandy,19,183).
arrival(4,jfk,19,206).
arrival(5,jfk,19,67).
arrival(6,dandy,19,128).
arrival(7,dandy,19,91).
arrival(8,dandy,19,235).
arrival(9,jfk,19,143).
arrival(10,cimbl,19,113).
arrival(11,teb,19,71).
arrival(12,dandy,19,250).
arrival(13,lga,19,278).
arrival(14,jfk,19,101).
arrival(15,ryend,19,173).
arrival(16,jfk,19,161).
arrival(17,cimbl,19,168).
arrival(18,cri,19,162).
arrival(19,dandy,19,248).
arrival(20,cri,19,107).
arrival(21,ryend,19,197).
arrival(22,teb,19,212).
arrival(23,teb,19,192).
arrival(24,ryend,19,112).
arrival(25,ryend,19,198).
arrival(26,dandy,19,123).
arrival(27,cri,19,175).
arrival(28,cri,19,186).
arrival(29,lga,19,151).
arrival(30,cri,19,125).
arrival(31,cimbl,19,105).
arrival(32,cimbl,19,95).
arrival(33,jfk,19,155).
arrival(0,ryend,20,165).
arrival(1,dandy,20,228).
arrival(2,cimbl,20,208).
arrival(3,dandy,20,189).
arrival(4,jfk,20,219).
arrival(5,cri,20,83).
arrival(6,ryend,20,132).
arrival(7,dandy,20,91).
arrival(8,lga,20,243).
arrival(9,jfk,20,161).
arrival(10,cimbl,20,113).
arrival(11,teb,20,71).
arrival(12,dandy,20,263).
arrival(13,lga,20,278).
arrival(14,jfk,20,101).
arrival(15,ryend,20,173).
arrival(16,jfk,20,179).
arrival(17,cimbl,20,174).
arrival(18,jfk,20,165).
arrival(19,dandy,20,248).
arrival(20,cri,20,113).
arrival(21,ryend,20,197).
arrival(22,dandy,20,222).
arrival(23,teb,20,192).
arrival(24,cri,20,128).
arrival(25,ryend,20,212).
arrival(26,teb,20,142).
arrival(27,cri,20,175).
arrival(28,cri,20,186).
arrival(29,lga,20,151).
arrival(30,cri,20,140).
arrival(31,teb,20,109).
arrival(32,ryend,20,100).
arrival(33,jfk,20,155).
arrival(0,ryend,21,165).
arrival(1,cri,21,244).
arrival(2,ryend,21,213).
arrival(3,dandy,21,189).
arrival(4,cimbl,21,227).
arrival(5,lga,21,95).
arrival(6,ryend,21,138).
arrival(7,dandy,21,91).
arrival(8,cimbl,21,260).
arrival(9,jfk,21,161).
arrival(10,ryend,21,118).
arrival(11,teb,21,71).
arrival(12,dandy,21,263).
arrival(13,lga,21,278).
arrival(14,jfk,21,101).
arrival(15,ryend,21,173).
arrival(16,jfk,21,179).
arrival(17,cimbl,21,174).
arrival(18,jfk,21,171).
arrival(19,dandy,21,248).
arrival(20,cri,21,113).
arrival(21,ryend,21,197).
arrival(22,dandy,21,228).
arrival(23,teb,21,192).
arrival(24,teb,21,151).
arrival(25,ryend,21,212).
arrival(26,lga,21,153).
arrival(27,jfk,21,178).
arrival(28,lga,21,192).
arrival(29,cimbl,21,155).
arrival(30,cri,21,140).
arrival(31,dandy,21,119).
arrival(32,cri,21,116).
arrival(33,jfk,21,155).
arrival(0,ryend,22,165).
arrival(1,cri,22,259).
arrival(2,ryend,22,221).
arrival(3,dandy,22,189).
arrival(4,cimbl,22,240).
arrival(5,lga,22,105).
arrival(6,ryend,22,138).
arrival(7,dandy,22,91).
arrival(8,cimbl,22,266).
arrival(9,jfk,22,161).
arrival(10,cri,22,134).
arrival(11,teb,22,71).
arrival(12,dandy,22,263).
arrival(13,lga,22,278).
arrival(14,jfk,22,101).
arrival(15,ryend,22,173).
arrival(16,jfk,22,179).
arrival(17,cimbl,22,174).
arrival(18,jfk,22,171).
arrival(19,dandy,22,248).
arrival(20,cri,22,113).
arrival(21,ryend,22,197).
arrival(22,dandy,22,228).
arrival(23,teb,22,192).
arrival(24,teb,22,166).
arrival(25,ryend,22,212).
arrival(26,cimbl,22,166).
arrival(27,jfk,22,184).
arrival(28,lga,22,202).
arrival(29,cimbl,22,161).
arrival(30,cri,22,140).
arrival(31,dandy,22,125).
arrival(32,lga,22,135).
arrival(33,jfk,22,155).
arrival(0,ryend,23,165).
arrival(1,cri,23,259).
arrival(2,ryend,23,221).
arrival(3,dandy,23,189).
arrival(4,cimbl,23,240).
arrival(5,lga,23,105).
arrival(6,ryend,23,138).
arrival(7,dandy,23,91).
arrival(8,cimbl,23,266).
arrival(9,jfk,23,161).
arrival(10,cri,23,147).
arrival(11,teb,23,71).
arrival(12,dandy,23,263).
arrival(13,lga,23,278).
arrival(14,jfk,23,101).
arrival(15,ryend,23,173).
arrival(16,jfk,23,179).
arrival(17,cimbl,23,174).
arrival(18,jfk,23,171).
arrival(19,dandy,23,248).
arrival(20,cri,23,113).
arrival(21,ryend,23,197).
arrival(22,dandy,23,228).
arrival(23,teb,23,192).
arrival(24,teb,23,166).
arrival(25,ryend,23,212).
arrival(26,cimbl,23,172).
arrival(27,jfk,23,184).
arrival(28,lga,23,202).
arrival(29,cimbl,23,161).
arrival(30,cri,23,140).
arrival(31,dandy,23,125).
arrival(32,lga,23,145).
arrival(33,jfk,23,155).
arrival(0,ryend,24,165).
arrival(1,cri,24,259).
arrival(2,ryend,24,221).
arrival(3,dandy,24,189).
arrival(4,cimbl,24,240).
arrival(5,lga,24,105).
arrival(6,ryend,24,138).
arrival(7,dandy,24,91).
arrival(8,cimbl,24,266).
arrival(9,jfk,24,161).
arrival(10,cri,24,147).
arrival(11,teb,24,71).
arrival(12,dandy,24,263).
arrival(13,lga,24,278).
arrival(14,jfk,24,101).
arrival(15,ryend,24,173).
arrival(16,jfk,24,179).
arrival(17,cimbl,24,174).
arrival(18,jfk,24,171).
arrival(19,dandy,24,248).
arrival(20,cri,24,113).
arrival(21,ryend,24,197).
arrival(22,dandy,24,228).
arrival(23,teb,24,192).
arrival(24,teb,24,166).
arrival(25,ryend,24,212).
arrival(26,cimbl,24,172).
arrival(27,jfk,24,184).
arrival(28,lga,24,202).
arrival(29,cimbl,24,161).
arrival(30,cri,24,140).
arrival(31,dandy,24,125).
arrival(32,lga,24,145).
arrival(33,jfk,24,155).
