no_swap(14). no_swap(0). no_swap(9). number_of_agent_need_switch(3). as(14,(teb,teb),0,11). as(0,(dandy,dandy),0,12). as(9,(dandy,dandy),0,12). as(14,(teb,teb),0,12). as(0,(dandy,dandy),0,13). as(9,(dandy,dandy),0,13). as(14,(teb,teb),0,13). as(0,(ryend,jfk),4,1). as(9,(lga,jfk),4,1). as(14,(cimbl,jfk),4,1). as(0,(jfk,ryend),4,2). as(9,(jfk,ryend),4,2). as(14,(jfk,ryend),4,2). as(0,(ryend,lga),4,3). as(9,(ryend,lga),4,3). as(14,(ryend,lga),4,3). as(0,(lga,ryend),4,4). as(9,(lga,ryend),4,4). as(14,(lga,ryend),4,4). as(0,(ryend,cri),4,5). as(9,(ryend,cimbl),4,5). as(14,(ryend,jfk),2,5). as(0,(cri,cimbl),4,6). as(9,(cimbl,cri),4,6). as(14,(jfk,lga),4,6). as(0,(cimbl,dandy),4,7). as(9,(cri,ryend),1,7). as(14,(lga,teb),4,7). as(0,(dandy,cimbl),4,8). as(9,(ryend,cimbl),4,8). as(14,(teb,lga),4,8). as(0,(cimbl,dandy),4,9). as(9,(cimbl,teb),4,9). as(14,(lga,cimbl),4,9). as(0,(dandy,ryend),4,10). as(9,(teb,cimbl),4,10). as(14,(cimbl,teb),4,10). as(0,(ryend,dandy),4,11). as(9,(cimbl,dandy),1,11). mixed_best(16,4,cri,3,5,157,148). mixed_best(8,5,cri,3,5,121,169). mixed_best(12,3,dandy,3,3,165,171). no_swap(6). no_swap(10). no_swap(11). no_swap(17). no_swap(7). no_swap(15). no_swap(1). no_swap(2). no_swap(13). as(6,(cri,cri),0,8). as(6,(cri,cri),0,9). as(8,(cri,cri),0,9). as(6,(cri,cri),0,10). as(8,(cri,cri),0,10). as(10,(dandy,dandy),0,10). as(11,(dandy,dandy),0,10). as(17,(dandy,dandy),0,10). as(5,(cri,cri),0,11). as(6,(cri,cri),0,11). as(7,(cimbl,cimbl),0,11). as(8,(cri,cri),0,11). as(10,(dandy,dandy),0,11). as(11,(dandy,dandy),0,11). as(15,(teb,teb),0,11). as(17,(dandy,dandy),0,11). as(1,(cimbl,cimbl),0,12). as(2,(dandy,dandy),0,12). as(5,(cri,cri),0,12). as(6,(cri,cri),0,12). as(7,(cimbl,cimbl),0,12). as(10,(dandy,dandy),0,12). as(11,(dandy,dandy),0,12). as(13,(teb,teb),0,12). as(15,(teb,teb),0,12). as(17,(dandy,dandy),0,12). as(1,(cimbl,cimbl),0,13). as(2,(dandy,dandy),0,13). as(5,(cri,cri),0,13). as(6,(cri,cri),0,13). as(7,(cimbl,cimbl),0,13). as(10,(dandy,dandy),0,13). as(11,(dandy,dandy),0,13). as(13,(teb,teb),0,13). as(15,(teb,teb),0,13). as(17,(dandy,dandy),0,13). as(1,(cri,dandy),4,1). as(2,(cri,dandy),4,1). as(3,(jfk,dandy),4,1). as(4,(lga,jfk),4,1). as(5,(teb,jfk),4,1). as(6,(cimbl,jfk),4,1). as(7,(cimbl,jfk),4,1). as(8,(cimbl,ryend),1,1). as(10,(lga,jfk),1,1). as(11,(dandy,jfk),4,1). as(12,(teb,cri),4,1). as(13,(teb,cri),4,1). as(15,(ryend,jfk),4,1). as(16,(dandy,jfk),4,1). as(17,(jfk,teb),4,1). as(1,(dandy,jfk),4,2). as(2,(dandy,jfk),4,2). as(3,(dandy,cri),4,2). as(4,(jfk,teb),4,2). as(5,(jfk,ryend),4,2). as(6,(jfk,ryend),4,2). as(7,(jfk,teb),4,2). as(8,(ryend,jfk),4,2). as(10,(jfk,ryend),4,2). as(11,(jfk,teb),4,2). as(12,(cri,teb),4,2). as(13,(cri,teb),4,2). as(15,(jfk,ryend),4,2). as(16,(jfk,dandy),3,2). as(17,(teb,dandy),4,2). as(1,(jfk,cri),4,3). as(2,(jfk,cri),4,3). as(3,(cri,dandy),4,3). as(4,(teb,lga),4,3). as(5,(ryend,lga),2,3). as(6,(ryend,lga),4,3). as(7,(teb,dandy),4,3). as(8,(jfk,cri),4,3). as(10,(ryend,lga),4,3). as(11,(teb,dandy),4,3). as(12,(teb,dandy),4,3). as(13,(teb,dandy),4,3). as(15,(ryend,lga),4,3). as(16,(dandy,cri),4,3). as(17,(dandy,cri),4,3). as(1,(cri,teb),4,4). as(2,(cri,teb),4,4). as(4,(lga,ryend),4,4). as(5,(lga,ryend),4,4). as(6,(lga,ryend),4,4). as(7,(dandy,cri),4,4). as(10,(lga,ryend),4,4). as(11,(dandy,cri),4,4). as(13,(dandy,cri),4,4). as(15,(lga,dandy),4,4). as(17,(cri,dandy),4,4). as(1,(teb,ryend),4,5). as(2,(teb,ryend),4,5). as(4,(ryend,cri),4,5). as(5,(ryend,cri),4,5). as(6,(ryend,cri),4,5). as(7,(cri,ryend),4,5). as(10,(ryend,cimbl),4,5). as(11,(cri,cimbl),4,5). as(13,(cri,cimbl),4,5). as(15,(dandy,lga),4,5). as(17,(dandy,lga),2,5). as(1,(ryend,cimbl),4,6). as(2,(ryend,cimbl),4,6). as(6,(cri,dandy),2,6). as(7,(ryend,cimbl),4,6). as(10,(cimbl,lga),4,6). as(11,(cimbl,lga),4,6). as(13,(cimbl,lga),4,6). as(15,(lga,cri),4,6). as(17,(lga,cri),4,6). as(1,(cimbl,teb),4,7). as(2,(cimbl,lga),4,7). as(6,(dandy,cri),2,7). as(7,(cimbl,dandy),4,7). as(10,(lga,teb),4,7). as(11,(lga,teb),4,7). as(13,(lga,teb),4,7). as(15,(cri,cimbl),3,7). as(17,(cri,ryend),1,7). as(1,(teb,lga),4,8). as(2,(lga,cimbl),4,8). as(7,(dandy,cimbl),4,8). as(10,(teb,ryend),3,8). as(11,(teb,lga),4,8). as(13,(teb,lga),4,8). as(15,(cimbl,lga),4,8). as(17,(ryend,cimbl),4,8). as(1,(lga,cimbl),4,9). as(2,(cimbl,dandy),4,9). as(7,(cimbl,teb),4,9). as(10,(ryend,dandy),4,9). as(11,(lga,dandy),2,9). as(13,(lga,teb),1,9). as(15,(lga,cimbl),4,9). as(17,(cimbl,dandy),4,9). as(1,(cimbl,teb),4,10). as(2,(dandy,ryend),4,10). as(7,(teb,cimbl),4,10). as(13,(teb,cimbl),4,10). as(15,(cimbl,teb),4,10). as(1,(teb,cimbl),4,11). as(2,(ryend,dandy),4,11). as(13,(cimbl,teb),2,11). as(16,(cimbl,cimbl),0,11). as(16,(cri,jfk),3,4). as(16,(jfk,lga),4,5). as(16,(lga,ryend),2,6). as(16,(ryend,dandy),4,7). as(16,(dandy,cimbl),2,8). as(16,(cimbl,lga),3,9). as(16,(lga,cimbl),1,10). as(12,(dandy,dandy),0,13). as(8,(cri,jfk),1,4). as(8,(jfk,teb),2,5). as(8,(teb,cimbl),4,6). as(8,(cimbl,jfk),2,7). as(8,(jfk,cri),4,8). as(12,(dandy,dandy),0,12). as(12,(dandy,jfk),3,4). as(12,(jfk,lga),4,5). as(12,(lga,cri),4,6). as(12,(cri,lga),1,7). as(12,(lga,cimbl),4,8). as(12,(cimbl,dandy),4,9). as(12,(dandy,teb),3,10). as(12,(teb,dandy),3,11). as(3,(cri,cri),0,12). as(5,(cri,cri),0,9). as(5,(cri,cri),0,10). as(5,(cri,cri),0,14). as(3,(cri,cri),0,13). as(3,(dandy,cri),4,4). as(3,(cimbl,teb),4,9). as(3,(teb,cimbl),4,10). as(3,(cri,cimbl),4,5). as(3,(cimbl,lga),4,6). as(3,(lga,teb),4,7). as(4,(cri,cri),0,9). as(4,(cri,cri),0,10). as(4,(cri,cri),0,11). as(4,(cri,cri),0,12). as(4,(cri,cri),0,13). as(4,(cri,cri),0,14). as(4,(cri,cri),0,15). as(4,(cri,teb),4,6). as(4,(teb,lga),4,7). as(4,(lga,cri),4,8). as(5,(cri,cri),0,15). as(5,(cri,dandy),4,6). as(5,(dandy,lga),4,7). as(5,(lga,cri),4,8). as(3,(teb,cimbl),4,8). as(3,(cimbl,cri),1,11). dl(start(14,(teb,teb),11),176). dl(arrival(14,(cimbl,teb),10),176). dl(start(0,(dandy,dandy),12),175). dl(arrival(0,(ryend,dandy),11),175). dl(start(9,(dandy,dandy),12),174). dl(arrival(9,(cimbl,dandy),11),174). dl(start(14,(teb,teb),12),176). dl(arrival(14,(teb,teb),11),176). dl(start(0,(dandy,dandy),13),175). dl(arrival(0,(dandy,dandy),12),175). dl(start(9,(dandy,dandy),13),174). dl(arrival(9,(dandy,dandy),12),174). dl(start(14,(teb,teb),13),176). dl(arrival(14,(teb,teb),12),176). dl(start(0,(jfk,ryend),2),29). dl(arrival(0,(ryend,jfk),1),11). dl(start(9,(jfk,ryend),2),24). dl(arrival(9,(lga,jfk),1),6). dl(start(14,(jfk,ryend),2),26). dl(arrival(14,(cimbl,jfk),1),8). dl(start(0,(ryend,lga),3),54). dl(arrival(0,(jfk,ryend),2),40). dl(start(9,(ryend,lga),3),49). dl(arrival(9,(jfk,ryend),2),35). dl(start(14,(ryend,lga),3),51). dl(arrival(14,(jfk,ryend),2),37). dl(start(0,(lga,ryend),4),77). dl(arrival(0,(ryend,lga),3),63). dl(start(9,(lga,ryend),4),72). dl(arrival(9,(ryend,lga),3),58). dl(start(14,(lga,ryend),4),74). dl(arrival(14,(ryend,lga),3),60). dl(start(0,(ryend,cri),5),99). dl(arrival(0,(lga,ryend),4),86). dl(start(9,(ryend,cimbl),5),89). dl(arrival(9,(lga,ryend),4),81). dl(start(14,(ryend,jfk),5),101). dl(arrival(14,(lga,ryend),4),83). dl(start(0,(cri,cimbl),6),116). dl(arrival(0,(ryend,cri),5),107). dl(start(9,(cimbl,cri),6),103). dl(arrival(9,(ryend,cimbl),5),94). dl(start(14,(jfk,lga),6),122). dl(arrival(14,(ryend,jfk),5),112). dl(start(0,(cimbl,dandy),7),129). dl(arrival(0,(cri,cimbl),6),122). dl(start(9,(cri,ryend),7),122). dl(arrival(9,(cimbl,cri),6),109). dl(start(14,(lga,teb),7),137). dl(arrival(14,(jfk,lga),6),128). dl(start(0,(dandy,cimbl),8),140). dl(arrival(0,(cimbl,dandy),7),133). dl(start(9,(ryend,cimbl),8),138). dl(arrival(9,(cri,ryend),7),130). dl(start(14,(teb,lga),8),151). dl(arrival(14,(lga,teb),7),142). dl(start(0,(cimbl,dandy),9),151). dl(arrival(0,(dandy,cimbl),8),144). dl(start(9,(cimbl,teb),9),149). dl(arrival(9,(ryend,cimbl),8),143). dl(start(14,(lga,cimbl),9),162). dl(arrival(14,(teb,lga),8),156). dl(start(0,(dandy,ryend),10),161). dl(arrival(0,(cimbl,dandy),9),155). dl(start(9,(teb,cimbl),10),159). dl(arrival(9,(cimbl,teb),9),153). dl(start(14,(cimbl,teb),10),172). dl(arrival(14,(lga,cimbl),9),166). dl(start(0,(ryend,dandy),11),171). dl(arrival(0,(dandy,ryend),10),165). dl(start(9,(cimbl,dandy),11),170). dl(arrival(9,(teb,cimbl),10),163). dl(start(6,(cri,cri),8),154). dl(arrival(6,(dandy,cri),7),154). dl(start(6,(cri,cri),9),154). dl(arrival(6,(cri,cri),8),154). dl(start(8,(cri,cri),9),121). dl(arrival(8,(jfk,cri),8),121). dl(start(6,(cri,cri),10),154). dl(arrival(6,(cri,cri),9),154). dl(start(8,(cri,cri),10),121). dl(arrival(8,(cri,cri),9),121). dl(start(10,(dandy,dandy),10),146). dl(arrival(10,(ryend,dandy),9),146). dl(start(11,(dandy,dandy),10),150). dl(arrival(11,(lga,dandy),9),150). dl(start(17,(dandy,dandy),10),153). dl(arrival(17,(cimbl,dandy),9),153). dl(start(5,(cri,cri),11),169). dl(arrival(5,(cri,cri),10),169). dl(start(6,(cri,cri),11),154). dl(arrival(6,(cri,cri),10),154). dl(start(7,(cimbl,cimbl),11),148). dl(arrival(7,(teb,cimbl),10),148). dl(start(8,(cri,cri),11),121). dl(arrival(8,(cri,cri),10),121). dl(start(10,(dandy,dandy),11),146). dl(arrival(10,(dandy,dandy),10),146). dl(start(11,(dandy,dandy),11),150). dl(arrival(11,(dandy,dandy),10),150). dl(start(15,(teb,teb),11),166). dl(arrival(15,(cimbl,teb),10),166). dl(start(17,(dandy,dandy),11),153). dl(arrival(17,(dandy,dandy),10),153). dl(start(1,(cimbl,cimbl),12),160). dl(arrival(1,(teb,cimbl),11),160). dl(start(2,(dandy,dandy),12),157). dl(arrival(2,(ryend,dandy),11),157). dl(start(5,(cri,cri),12),169). dl(arrival(5,(cri,cri),11),169). dl(start(6,(cri,cri),12),154). dl(arrival(6,(cri,cri),11),154). dl(start(7,(cimbl,cimbl),12),148). dl(arrival(7,(cimbl,cimbl),11),148). dl(start(10,(dandy,dandy),12),146). dl(arrival(10,(dandy,dandy),11),146). dl(start(11,(dandy,dandy),12),150). dl(arrival(11,(dandy,dandy),11),150). dl(start(13,(teb,teb),12),157). dl(arrival(13,(cimbl,teb),11),157). dl(start(15,(teb,teb),12),166). dl(arrival(15,(teb,teb),11),166). dl(start(17,(dandy,dandy),12),153). dl(arrival(17,(dandy,dandy),11),153). dl(start(1,(cimbl,cimbl),13),160). dl(arrival(1,(cimbl,cimbl),12),160). dl(start(2,(dandy,dandy),13),157). dl(arrival(2,(dandy,dandy),12),157). dl(start(5,(cri,cri),13),169). dl(arrival(5,(cri,cri),12),169). dl(start(6,(cri,cri),13),154). dl(arrival(6,(cri,cri),12),154). dl(start(7,(cimbl,cimbl),13),148). dl(arrival(7,(cimbl,cimbl),12),148). dl(start(10,(dandy,dandy),13),146). dl(arrival(10,(dandy,dandy),12),146). dl(start(11,(dandy,dandy),13),150). dl(arrival(11,(dandy,dandy),12),150). dl(start(13,(teb,teb),13),157). dl(arrival(13,(teb,teb),12),157). dl(start(15,(teb,teb),13),166). dl(arrival(15,(teb,teb),12),166). dl(start(17,(dandy,dandy),13),153). dl(arrival(17,(dandy,dandy),12),153). dl(start(1,(dandy,jfk),2),29). dl(arrival(1,(cri,dandy),1),10). dl(start(2,(dandy,jfk),2),29). dl(arrival(2,(cri,dandy),1),10). dl(start(3,(dandy,cri),2),27). dl(arrival(3,(jfk,dandy),1),12). dl(start(4,(jfk,teb),2),24). dl(arrival(4,(lga,jfk),1),6). dl(start(5,(jfk,ryend),2),29). dl(arrival(5,(teb,jfk),1),11). dl(start(6,(jfk,ryend),2),26). dl(arrival(6,(cimbl,jfk),1),8). dl(start(7,(jfk,teb),2),26). dl(arrival(7,(cimbl,jfk),1),8). dl(start(8,(ryend,jfk),2),23). dl(arrival(8,(cimbl,ryend),1),5). dl(start(10,(jfk,ryend),2),24). dl(arrival(10,(lga,jfk),1),6). dl(start(11,(jfk,teb),2),30). dl(arrival(11,(dandy,jfk),1),12). dl(start(12,(cri,teb),2),25). dl(arrival(12,(teb,cri),1),10). dl(start(13,(cri,teb),2),25). dl(arrival(13,(teb,cri),1),10). dl(start(15,(jfk,ryend),2),29). dl(arrival(15,(ryend,jfk),1),11). dl(start(16,(jfk,dandy),2),31). dl(arrival(16,(dandy,jfk),1),12). dl(start(17,(teb,dandy),2),17). dl(arrival(17,(jfk,teb),1),11). dl(start(1,(jfk,cri),3),47). dl(arrival(1,(dandy,jfk),2),41). dl(start(2,(jfk,cri),3),47). dl(arrival(2,(dandy,jfk),2),41). dl(start(3,(cri,dandy),3),52). dl(arrival(3,(dandy,cri),2),37). dl(start(4,(teb,lga),3),44). dl(arrival(4,(jfk,teb),2),35). dl(start(5,(ryend,lga),3),54). dl(arrival(5,(jfk,ryend),2),40). dl(start(6,(ryend,lga),3),51). dl(arrival(6,(jfk,ryend),2),37). dl(start(7,(teb,dandy),3),43). dl(arrival(7,(jfk,teb),2),37). dl(start(8,(jfk,cri),3),40). dl(arrival(8,(ryend,jfk),2),34). dl(start(10,(ryend,lga),3),49). dl(arrival(10,(jfk,ryend),2),35). dl(start(11,(teb,dandy),3),47). dl(arrival(11,(jfk,teb),2),41). dl(start(12,(teb,dandy),3),41). dl(arrival(12,(cri,teb),2),35). dl(start(13,(teb,dandy),3),41). dl(arrival(13,(cri,teb),2),35). dl(start(15,(ryend,lga),3),54). dl(arrival(15,(jfk,ryend),2),40). dl(start(16,(dandy,cri),3),58). dl(arrival(16,(jfk,dandy),2),43). dl(start(17,(dandy,cri),3),36). dl(arrival(17,(teb,dandy),2),21). dl(start(1,(cri,teb),4),65). dl(arrival(1,(jfk,cri),3),50). dl(start(2,(cri,teb),4),65). dl(arrival(2,(jfk,cri),3),50). dl(start(4,(lga,ryend),4),63). dl(arrival(4,(teb,lga),3),49). dl(start(5,(lga,ryend),4),77). dl(arrival(5,(ryend,lga),3),63). dl(start(6,(lga,ryend),4),74). dl(arrival(6,(ryend,lga),3),60). dl(start(7,(dandy,cri),4),62). dl(arrival(7,(teb,dandy),3),47). dl(start(10,(lga,ryend),4),72). dl(arrival(10,(ryend,lga),3),58). dl(start(11,(dandy,cri),4),66). dl(arrival(11,(teb,dandy),3),51). dl(start(13,(dandy,cri),4),60). dl(arrival(13,(teb,dandy),3),45). dl(start(15,(lga,dandy),4),76). dl(arrival(15,(ryend,lga),3),63). dl(start(17,(cri,dandy),4),61). dl(arrival(17,(dandy,cri),3),46). dl(start(1,(teb,ryend),5),86). dl(arrival(1,(cri,teb),4),75). dl(start(2,(teb,ryend),5),86). dl(arrival(2,(cri,teb),4),75). dl(start(4,(ryend,cri),5),85). dl(arrival(4,(lga,ryend),4),72). dl(start(5,(ryend,cri),5),99). dl(arrival(5,(lga,ryend),4),86). dl(start(6,(ryend,cri),5),96). dl(arrival(6,(lga,ryend),4),83). dl(start(7,(cri,ryend),5),85). dl(arrival(7,(dandy,cri),4),72). dl(start(10,(ryend,cimbl),5),89). dl(arrival(10,(lga,ryend),4),81). dl(start(11,(cri,cimbl),5),85). dl(arrival(11,(dandy,cri),4),76). dl(start(13,(cri,cimbl),5),79). dl(arrival(13,(dandy,cri),4),70). dl(start(15,(dandy,lga),5),97). dl(arrival(15,(lga,dandy),4),84). dl(start(17,(dandy,lga),5),84). dl(arrival(17,(cri,dandy),4),71). dl(start(1,(ryend,cimbl),6),101). dl(arrival(1,(teb,ryend),5),93). dl(start(2,(ryend,cimbl),6),101). dl(arrival(2,(teb,ryend),5),93). dl(start(6,(cri,dandy),6),119). dl(arrival(6,(ryend,cri),5),104). dl(start(7,(ryend,cimbl),6),101). dl(arrival(7,(cri,ryend),5),93). dl(start(10,(cimbl,lga),6),100). dl(arrival(10,(ryend,cimbl),5),94). dl(start(11,(cimbl,lga),6),97). dl(arrival(11,(cri,cimbl),5),91). dl(start(13,(cimbl,lga),6),91). dl(arrival(13,(cri,cimbl),5),85). dl(start(15,(lga,cri),6),115). dl(arrival(15,(dandy,lga),5),105). dl(start(17,(lga,cri),6),102). dl(arrival(17,(dandy,lga),5),92). dl(start(1,(cimbl,teb),7),112). dl(arrival(1,(ryend,cimbl),6),106). dl(start(2,(cimbl,lga),7),112). dl(arrival(2,(ryend,cimbl),6),106). dl(start(6,(dandy,cri),7),144). dl(arrival(6,(cri,dandy),6),129). dl(start(7,(cimbl,dandy),7),113). dl(arrival(7,(ryend,cimbl),6),106). dl(start(10,(lga,teb),7),113). dl(arrival(10,(cimbl,lga),6),104). dl(start(11,(lga,teb),7),110). dl(arrival(11,(cimbl,lga),6),101). dl(start(13,(lga,teb),7),104). dl(arrival(13,(cimbl,lga),6),95). dl(start(15,(cri,cimbl),7),130). dl(arrival(15,(lga,cri),6),121). dl(start(17,(cri,ryend),7),121). dl(arrival(17,(lga,cri),6),108). dl(start(1,(teb,lga),8),125). dl(arrival(1,(cimbl,teb),7),116). dl(start(2,(lga,cimbl),8),122). dl(arrival(2,(cimbl,lga),7),116). dl(start(7,(dandy,cimbl),8),124). dl(arrival(7,(cimbl,dandy),7),117). dl(start(10,(teb,ryend),8),129). dl(arrival(10,(lga,teb),7),118). dl(start(11,(teb,lga),8),124). dl(arrival(11,(lga,teb),7),115). dl(start(13,(teb,lga),8),118). dl(arrival(13,(lga,teb),7),109). dl(start(15,(cimbl,lga),8),142). dl(arrival(15,(cri,cimbl),7),136). dl(start(17,(ryend,cimbl),8),137). dl(arrival(17,(cri,ryend),7),129). dl(start(1,(lga,cimbl),9),136). dl(arrival(1,(teb,lga),8),130). dl(start(2,(cimbl,dandy),9),133). dl(arrival(2,(lga,cimbl),8),126). dl(start(7,(cimbl,teb),9),134). dl(arrival(7,(dandy,cimbl),8),128). dl(start(10,(ryend,dandy),9),142). dl(arrival(10,(teb,ryend),8),136). dl(start(11,(lga,dandy),9),142). dl(arrival(11,(teb,lga),8),129). dl(start(13,(lga,teb),9),132). dl(arrival(13,(teb,lga),8),123). dl(start(15,(lga,cimbl),9),152). dl(arrival(15,(cimbl,lga),8),146). dl(start(17,(cimbl,dandy),9),149). dl(arrival(17,(ryend,cimbl),8),142). dl(start(1,(cimbl,teb),10),146). dl(arrival(1,(lga,cimbl),9),140). dl(start(2,(dandy,ryend),10),143). dl(arrival(2,(cimbl,dandy),9),137). dl(start(7,(teb,cimbl),10),144). dl(arrival(7,(cimbl,teb),9),138). dl(start(13,(teb,cimbl),10),143). dl(arrival(13,(lga,teb),9),137). dl(start(15,(cimbl,teb),10),162). dl(arrival(15,(lga,cimbl),9),156). dl(start(1,(teb,cimbl),11),156). dl(arrival(1,(cimbl,teb),10),150). dl(start(2,(ryend,dandy),11),153). dl(arrival(2,(dandy,ryend),10),147). dl(start(13,(cimbl,teb),11),153). dl(arrival(13,(teb,cimbl),10),147). dl(start(16,(cimbl,cimbl),11),157). dl(arrival(16,(lga,cimbl),10),157). dl(start(16,(cri,jfk),4),74). dl(arrival(16,(dandy,cri),3),68). dl(start(16,(jfk,lga),5),87). dl(arrival(16,(cri,jfk),4),77). dl(start(16,(lga,ryend),6),107). dl(arrival(16,(jfk,lga),5),93). dl(start(16,(ryend,dandy),7),122). dl(arrival(16,(lga,ryend),6),116). dl(start(16,(dandy,cimbl),8),133). dl(arrival(16,(ryend,dandy),7),126). dl(start(16,(cimbl,lga),9),143). dl(arrival(16,(dandy,cimbl),8),137). dl(start(16,(lga,cimbl),10),153). dl(arrival(16,(cimbl,lga),9),147). dl(start(12,(dandy,dandy),13),165). dl(arrival(12,(dandy,dandy),12),165). dl(start(8,(cri,jfk),4),49). dl(arrival(8,(jfk,cri),3),43). dl(start(8,(jfk,teb),5),70). dl(arrival(8,(cri,jfk),4),52). dl(start(8,(teb,cimbl),6),87). dl(arrival(8,(jfk,teb),5),81). dl(start(8,(cimbl,jfk),7),104). dl(arrival(8,(teb,cimbl),6),91). dl(start(8,(jfk,cri),8),118). dl(arrival(8,(cimbl,jfk),7),112). dl(start(12,(dandy,dandy),12),165). dl(arrival(12,(teb,dandy),11),165). dl(start(12,(dandy,jfk),4),64). dl(arrival(12,(teb,dandy),3),45). dl(start(12,(jfk,lga),5),86). dl(arrival(12,(dandy,jfk),4),76). dl(start(12,(lga,cri),6),102). dl(arrival(12,(jfk,lga),5),92). dl(start(12,(cri,lga),7),118). dl(arrival(12,(lga,cri),6),108). dl(start(12,(lga,cimbl),8),130). dl(arrival(12,(cri,lga),7),124). dl(start(12,(cimbl,dandy),9),141). dl(arrival(12,(lga,cimbl),8),134). dl(start(12,(dandy,teb),10),151). dl(arrival(12,(cimbl,dandy),9),145). dl(start(12,(teb,dandy),11),161). dl(arrival(12,(dandy,teb),10),155). dl(start(3,(cri,cri),12),171). dl(arrival(3,(cimbl,cri),11),171). dl(start(5,(cri,cri),9),169). dl(arrival(5,(lga,cri),8),169). dl(start(5,(cri,cri),10),169). dl(arrival(5,(cri,cri),9),169). dl(start(5,(cri,cri),14),169). dl(arrival(5,(cri,cri),13),169). dl(start(3,(cri,cri),13),171). dl(arrival(3,(cri,cri),12),171). dl(start(3,(dandy,cri),4),77). dl(arrival(3,(cri,dandy),3),62). dl(start(3,(cimbl,teb),9),142). dl(arrival(3,(teb,cimbl),8),136). dl(start(3,(teb,cimbl),10),152). dl(arrival(3,(cimbl,teb),9),146). dl(start(3,(cri,cimbl),5),96). dl(arrival(3,(dandy,cri),4),87). dl(start(3,(cimbl,lga),6),108). dl(arrival(3,(cri,cimbl),5),102). dl(start(3,(lga,teb),7),121). dl(arrival(3,(cimbl,lga),6),112). dl(start(4,(cri,cri),9),148). dl(arrival(4,(lga,cri),8),148). dl(start(4,(cri,cri),10),148). dl(arrival(4,(cri,cri),9),148). dl(start(4,(cri,cri),11),148). dl(arrival(4,(cri,cri),10),148). dl(start(4,(cri,cri),12),148). dl(arrival(4,(cri,cri),11),148). dl(start(4,(cri,cri),13),148). dl(arrival(4,(cri,cri),12),148). dl(start(4,(cri,cri),14),148). dl(arrival(4,(cri,cri),13),148). dl(start(4,(cri,cri),15),148). dl(arrival(4,(cri,cri),14),148). dl(start(4,(cri,teb),6),108). dl(arrival(4,(ryend,cri),5),93). dl(start(4,(teb,lga),7),127). dl(arrival(4,(cri,teb),6),118). dl(start(4,(lga,cri),8),142). dl(arrival(4,(teb,lga),7),132). dl(start(5,(cri,cri),15),169). dl(arrival(5,(cri,cri),14),169). dl(start(5,(cri,dandy),6),122). dl(arrival(5,(ryend,cri),5),107). dl(start(5,(dandy,lga),7),145). dl(arrival(5,(cri,dandy),6),132). dl(start(5,(lga,cri),8),163). dl(arrival(5,(dandy,lga),7),153). dl(start(3,(teb,cimbl),8),132). dl(arrival(3,(lga,teb),7),126). dl(start(3,(cimbl,cri),11),165). dl(arrival(3,(teb,cimbl),10),156). dl(arrival(0,(dandy,dandy),13),175). dl(arrival(9,(dandy,dandy),13),174). dl(arrival(14,(teb,teb),13),176). dl(start(0,(ryend,jfk),1),0). dl(start(9,(lga,jfk),1),0). dl(start(14,(cimbl,jfk),1),0). dl(arrival(8,(cri,cri),11),121). dl(arrival(1,(cimbl,cimbl),13),160). dl(arrival(2,(dandy,dandy),13),157). dl(arrival(6,(cri,cri),13),154). dl(arrival(7,(cimbl,cimbl),13),148). dl(arrival(10,(dandy,dandy),13),146). dl(arrival(11,(dandy,dandy),13),150). dl(arrival(13,(teb,teb),13),157). dl(arrival(15,(teb,teb),13),166). dl(arrival(17,(dandy,dandy),13),153). dl(start(1,(cri,dandy),1),0). dl(start(2,(cri,dandy),1),0). dl(start(3,(jfk,dandy),1),0). dl(start(4,(lga,jfk),1),0). dl(start(5,(teb,jfk),1),0). dl(start(6,(cimbl,jfk),1),0). dl(start(7,(cimbl,jfk),1),0). dl(start(8,(cimbl,ryend),1),0). dl(start(10,(lga,jfk),1),0). dl(start(11,(dandy,jfk),1),0). dl(start(12,(teb,cri),1),0). dl(start(13,(teb,cri),1),0). dl(start(15,(ryend,jfk),1),0). dl(start(16,(dandy,jfk),1),0). dl(start(17,(jfk,teb),1),0). dl(arrival(16,(cimbl,cimbl),11),157). dl(arrival(12,(dandy,dandy),13),165). dl(arrival(3,(cri,cri),13),171). dl(arrival(4,(cri,cri),15),148). dl(arrival(5,(cri,cri),15),169).