no_swap(9). no_swap(5). number_of_agent_need_switch(5). as(9,(teb,teb),0,11). as(5,(teb,teb),0,12). as(9,(teb,teb),0,12). as(5,(teb,teb),0,13). as(9,(teb,teb),0,13). as(5,(lga,jfk),4,1). as(9,(ryend,jfk),4,1). as(5,(jfk,teb),4,2). as(9,(jfk,cri),4,2). as(5,(teb,dandy),4,3). as(9,(cri,dandy),4,3). as(5,(dandy,cri),4,4). as(9,(dandy,cri),4,4). as(5,(cri,ryend),4,5). as(9,(cri,ryend),4,5). as(5,(ryend,teb),4,6). as(9,(ryend,jfk),2,6). as(5,(teb,cimbl),4,7). as(9,(jfk,cimbl),1,7). as(5,(cimbl,ryend),4,8). as(9,(cimbl,ryend),4,8). as(5,(ryend,lga),1,9). as(9,(ryend,cimbl),3,9). as(5,(lga,cimbl),4,10). as(9,(cimbl,teb),4,10). as(5,(cimbl,teb),4,11). mixed_best(10,15,ryend,13,8,171,163). mixed_best(8,7,lga,6,5,176,149). mixed_best(13,14,ryend,1,3,141,179). mixed_best(6,3,cri,4,6,140,177). mixed_best(4,2,teb,5,7,159,164). no_swap(0). no_swap(1). no_swap(12). no_swap(11). as(0,(jfk,jfk),0,9). as(1,(jfk,jfk),0,9). as(4,(jfk,jfk),0,9). as(12,(jfk,jfk),0,9). as(0,(jfk,jfk),0,10). as(1,(jfk,jfk),0,10). as(4,(jfk,jfk),0,10). as(10,(ryend,ryend),0,10). as(12,(jfk,jfk),0,10). as(0,(jfk,jfk),0,11). as(1,(jfk,jfk),0,11). as(2,(jfk,jfk),0,11). as(4,(jfk,jfk),0,11). as(7,(teb,teb),0,11). as(10,(ryend,ryend),0,11). as(11,(jfk,jfk),0,11). as(12,(jfk,jfk),0,11). as(0,(jfk,jfk),0,12). as(1,(jfk,jfk),0,12). as(2,(jfk,jfk),0,12). as(7,(teb,teb),0,12). as(8,(teb,teb),0,12). as(10,(ryend,ryend),0,12). as(11,(jfk,jfk),0,12). as(12,(jfk,jfk),0,12). as(0,(jfk,jfk),0,13). as(1,(jfk,jfk),0,13). as(2,(jfk,jfk),0,13). as(8,(teb,teb),0,13). as(10,(ryend,ryend),0,13). as(11,(jfk,jfk),0,13). as(12,(jfk,jfk),0,13). as(0,(lga,dandy),1,1). as(1,(ryend,jfk),4,1). as(2,(teb,jfk),4,1). as(3,(cri,dandy),4,1). as(4,(lga,dandy),1,1). as(6,(lga,jfk),3,1). as(7,(cimbl,dandy),1,1). as(8,(cimbl,ryend),4,1). as(10,(lga,ryend),4,1). as(11,(jfk,dandy),4,1). as(12,(teb,jfk),4,1). as(13,(jfk,ryend),4,1). as(14,(lga,ryend),4,1). as(15,(jfk,teb),4,1). as(0,(dandy,jfk),4,2). as(1,(jfk,ryend),4,2). as(2,(jfk,dandy),3,2). as(3,(dandy,jfk),4,2). as(4,(dandy,jfk),4,2). as(6,(jfk,teb),4,2). as(7,(dandy,jfk),4,2). as(8,(ryend,jfk),4,2). as(10,(ryend,jfk),4,2). as(11,(dandy,jfk),4,2). as(12,(jfk,cri),4,2). as(14,(ryend,lga),4,2). as(15,(teb,cri),3,2). as(0,(jfk,lga),4,3). as(1,(ryend,lga),4,3). as(2,(dandy,cri),4,3). as(3,(jfk,cri),1,3). as(4,(jfk,cimbl),4,3). as(6,(teb,dandy),4,3). as(7,(jfk,ryend),3,3). as(8,(jfk,cri),1,3). as(10,(jfk,cri),4,3). as(11,(jfk,cri),4,3). as(12,(cri,teb),4,3). as(14,(lga,ryend),4,3). as(15,(cri,teb),4,3). as(0,(lga,ryend),4,4). as(1,(lga,ryend),4,4). as(2,(cri,ryend),4,4). as(3,(cri,dandy),4,4). as(4,(cimbl,cri),4,4). as(6,(dandy,cri),4,4). as(7,(ryend,cri),4,4). as(8,(cri,ryend),4,4). as(10,(cri,teb),4,4). as(11,(cri,teb),4,4). as(12,(teb,dandy),4,4). as(15,(teb,jfk),3,4). as(0,(ryend,cri),4,5). as(1,(ryend,dandy),4,5). as(2,(ryend,dandy),4,5). as(3,(dandy,lga),4,5). as(4,(cri,teb),3,5). as(7,(cri,lga),4,5). as(8,(ryend,dandy),4,5). as(10,(teb,dandy),2,5). as(11,(teb,dandy),1,5). as(12,(dandy,cri),4,5). as(15,(jfk,teb),2,5). as(0,(cri,cimbl),1,6). as(1,(dandy,lga),4,6). as(2,(dandy,lga),4,6). as(3,(lga,cri),4,6). as(8,(dandy,lga),4,6). as(10,(dandy,lga),4,6). as(11,(dandy,lga),4,6). as(12,(cri,cimbl),1,6). as(15,(teb,ryend),4,6). as(0,(cimbl,cri),4,7). as(1,(lga,cri),3,7). as(2,(lga,teb),4,7). as(10,(lga,teb),4,7). as(11,(lga,teb),4,7). as(12,(cimbl,cri),4,7). as(15,(ryend,cimbl),4,7). as(0,(cri,jfk),4,8). as(1,(cri,jfk),4,8). as(10,(teb,cimbl),4,8). as(11,(teb,cimbl),4,8). as(12,(cri,jfk),4,8). as(15,(cimbl,ryend),4,8). as(10,(cimbl,ryend),4,9). as(11,(cimbl,cri),3,9). as(11,(cri,jfk),4,10). as(10,(teb,teb),0,17). as(10,(teb,teb),0,18). as(10,(ryend,dandy),1,14). as(10,(dandy,cimbl),4,15). as(10,(cimbl,teb),4,16). as(6,(teb,teb),0,11). as(13,(jfk,jfk),0,11). as(8,(teb,teb),0,14). as(8,(lga,cri),4,7). as(8,(cri,ryend),1,8). as(8,(ryend,cimbl),4,9). as(8,(cimbl,ryend),4,10). as(8,(ryend,teb),1,11). as(6,(teb,teb),0,10). as(13,(jfk,jfk),0,10). as(13,(ryend,cri),4,2). as(13,(cri,lga),4,3). as(13,(lga,cri),4,4). as(13,(cri,ryend),1,5). as(13,(ryend,cimbl),4,6). as(13,(cimbl,ryend),4,7). as(13,(ryend,cri),1,8). as(13,(cri,jfk),2,9). as(6,(cri,lga),3,5). as(6,(lga,ryend),2,6). as(6,(ryend,dandy),1,7). as(6,(dandy,cimbl),4,8). as(6,(cimbl,teb),4,9). as(4,(teb,ryend),2,6). as(4,(ryend,dandy),4,7). as(4,(dandy,jfk),2,8). as(3,(jfk,jfk),0,11). as(3,(jfk,jfk),0,12). as(3,(jfk,jfk),0,13). as(3,(jfk,jfk),0,14). as(2,(teb,cimbl),4,8). as(7,(teb,teb),0,10). as(7,(lga,teb),4,6). as(7,(teb,cimbl),4,7). as(7,(cimbl,lga),4,8). as(7,(lga,teb),3,9). as(14,(lga,lga),0,12). as(14,(lga,lga),0,13). as(2,(jfk,jfk),0,10). as(2,(jfk,jfk),0,14). as(14,(lga,lga),0,14). as(14,(lga,lga),0,15). as(14,(ryend,jfk),4,4). as(14,(jfk,cri),1,5). as(14,(cri,ryend),4,6). as(14,(ryend,dandy),4,7). as(14,(dandy,lga),4,8). as(14,(lga,teb),4,9). as(14,(teb,cimbl),3,10). as(14,(cimbl,lga),4,11). as(3,(jfk,jfk),0,15). as(3,(cri,jfk),4,10). as(3,(cri,ryend),4,7). as(3,(ryend,dandy),4,8). as(3,(dandy,cri),3,9). as(2,(jfk,jfk),0,15). as(2,(cimbl,jfk),3,9). dl(start(9,(teb,teb),11),177). dl(arrival(9,(cimbl,teb),10),177). dl(start(5,(teb,teb),12),175). dl(arrival(5,(cimbl,teb),11),175). dl(start(9,(teb,teb),12),177). dl(arrival(9,(teb,teb),11),177). dl(start(5,(teb,teb),13),175). dl(arrival(5,(teb,teb),12),175). dl(start(9,(teb,teb),13),177). dl(arrival(9,(teb,teb),12),177). dl(start(5,(jfk,teb),2),24). dl(arrival(5,(lga,jfk),1),6). dl(start(9,(jfk,cri),2),17). dl(arrival(9,(ryend,jfk),1),11). dl(start(5,(teb,dandy),3),41). dl(arrival(5,(jfk,teb),2),35). dl(start(9,(cri,dandy),3),35). dl(arrival(9,(jfk,cri),2),20). dl(start(5,(dandy,cri),4),60). dl(arrival(5,(teb,dandy),3),45). dl(start(9,(dandy,cri),4),60). dl(arrival(9,(cri,dandy),3),45). dl(start(5,(cri,ryend),5),83). dl(arrival(5,(dandy,cri),4),70). dl(start(9,(cri,ryend),5),83). dl(arrival(9,(dandy,cri),4),70). dl(start(5,(ryend,teb),6),102). dl(arrival(5,(cri,ryend),5),91). dl(start(9,(ryend,jfk),6),109). dl(arrival(9,(cri,ryend),5),91). dl(start(5,(teb,cimbl),7),115). dl(arrival(5,(ryend,teb),6),109). dl(start(9,(jfk,cimbl),7),133). dl(arrival(9,(ryend,jfk),6),120). dl(start(5,(cimbl,ryend),8),127). dl(arrival(5,(teb,cimbl),7),119). dl(start(9,(cimbl,ryend),8),149). dl(arrival(9,(jfk,cimbl),7),141). dl(start(5,(ryend,lga),9),146). dl(arrival(5,(cimbl,ryend),8),132). dl(start(9,(ryend,cimbl),9),162). dl(arrival(9,(cimbl,ryend),8),154). dl(start(5,(lga,cimbl),10),161). dl(arrival(5,(ryend,lga),9),155). dl(start(9,(cimbl,teb),10),173). dl(arrival(9,(ryend,cimbl),9),167). dl(start(5,(cimbl,teb),11),171). dl(arrival(5,(lga,cimbl),10),165). dl(start(0,(jfk,jfk),9),138). dl(arrival(0,(cri,jfk),8),138). dl(start(1,(jfk,jfk),9),142). dl(arrival(1,(cri,jfk),8),142). dl(start(4,(jfk,jfk),9),159). dl(arrival(4,(dandy,jfk),8),159). dl(start(12,(jfk,jfk),9),119). dl(arrival(12,(cri,jfk),8),119). dl(start(0,(jfk,jfk),10),138). dl(arrival(0,(jfk,jfk),9),138). dl(start(1,(jfk,jfk),10),142). dl(arrival(1,(jfk,jfk),9),142). dl(start(4,(jfk,jfk),10),159). dl(arrival(4,(jfk,jfk),9),159). dl(start(10,(ryend,ryend),10),140). dl(arrival(10,(cimbl,ryend),9),140). dl(start(12,(jfk,jfk),10),119). dl(arrival(12,(jfk,jfk),9),119). dl(start(0,(jfk,jfk),11),138). dl(arrival(0,(jfk,jfk),10),138). dl(start(1,(jfk,jfk),11),142). dl(arrival(1,(jfk,jfk),10),142). dl(start(2,(jfk,jfk),11),164). dl(arrival(2,(jfk,jfk),10),164). dl(start(4,(jfk,jfk),11),159). dl(arrival(4,(jfk,jfk),10),159). dl(start(7,(teb,teb),11),149). dl(arrival(7,(teb,teb),10),149). dl(start(10,(ryend,ryend),11),140). dl(arrival(10,(ryend,ryend),10),140). dl(start(11,(jfk,jfk),11),156). dl(arrival(11,(cri,jfk),10),156). dl(start(12,(jfk,jfk),11),119). dl(arrival(12,(jfk,jfk),10),119). dl(start(0,(jfk,jfk),12),138). dl(arrival(0,(jfk,jfk),11),138). dl(start(1,(jfk,jfk),12),142). dl(arrival(1,(jfk,jfk),11),142). dl(start(2,(jfk,jfk),12),164). dl(arrival(2,(jfk,jfk),11),164). dl(start(7,(teb,teb),12),149). dl(arrival(7,(teb,teb),11),149). dl(start(8,(teb,teb),12),176). dl(arrival(8,(ryend,teb),11),176). dl(start(10,(ryend,ryend),12),140). dl(arrival(10,(ryend,ryend),11),140). dl(start(11,(jfk,jfk),12),156). dl(arrival(11,(jfk,jfk),11),156). dl(start(12,(jfk,jfk),12),119). dl(arrival(12,(jfk,jfk),11),119). dl(start(0,(jfk,jfk),13),138). dl(arrival(0,(jfk,jfk),12),138). dl(start(1,(jfk,jfk),13),142). dl(arrival(1,(jfk,jfk),12),142). dl(start(2,(jfk,jfk),13),164). dl(arrival(2,(jfk,jfk),12),164). dl(start(8,(teb,teb),13),176). dl(arrival(8,(teb,teb),12),176). dl(start(10,(ryend,ryend),13),140). dl(arrival(10,(ryend,ryend),12),140). dl(start(11,(jfk,jfk),13),156). dl(arrival(11,(jfk,jfk),12),156). dl(start(12,(jfk,jfk),13),119). dl(arrival(12,(jfk,jfk),12),119). dl(start(0,(dandy,jfk),2),27). dl(arrival(0,(lga,dandy),1),8). dl(start(1,(jfk,ryend),2),29). dl(arrival(1,(ryend,jfk),1),11). dl(start(2,(jfk,dandy),2),30). dl(arrival(2,(teb,jfk),1),11). dl(start(3,(dandy,jfk),2),29). dl(arrival(3,(cri,dandy),1),10). dl(start(4,(dandy,jfk),2),27). dl(arrival(4,(lga,dandy),1),8). dl(start(6,(jfk,teb),2),24). dl(arrival(6,(lga,jfk),1),6). dl(start(7,(dandy,jfk),2),23). dl(arrival(7,(cimbl,dandy),1),4). dl(start(8,(ryend,jfk),2),23). dl(arrival(8,(cimbl,ryend),1),5). dl(start(10,(ryend,jfk),2),27). dl(arrival(10,(lga,ryend),1),9). dl(start(11,(dandy,jfk),2),31). dl(arrival(11,(jfk,dandy),1),12). dl(start(12,(jfk,cri),2),17). dl(arrival(12,(teb,jfk),1),11). dl(start(14,(ryend,lga),2),23). dl(arrival(14,(lga,ryend),1),9). dl(start(15,(teb,cri),2),26). dl(arrival(15,(jfk,teb),1),11). dl(start(0,(jfk,lga),3),49). dl(arrival(0,(dandy,jfk),2),39). dl(start(1,(ryend,lga),3),54). dl(arrival(1,(jfk,ryend),2),40). dl(start(2,(dandy,cri),3),57). dl(arrival(2,(jfk,dandy),2),42). dl(start(3,(jfk,cri),3),47). dl(arrival(3,(dandy,jfk),2),41). dl(start(4,(jfk,cimbl),3),52). dl(arrival(4,(dandy,jfk),2),39). dl(start(6,(teb,dandy),3),41). dl(arrival(6,(jfk,teb),2),35). dl(start(7,(jfk,ryend),3),53). dl(arrival(7,(dandy,jfk),2),35). dl(start(8,(jfk,cri),3),40). dl(arrival(8,(ryend,jfk),2),34). dl(start(10,(jfk,cri),3),44). dl(arrival(10,(ryend,jfk),2),38). dl(start(11,(jfk,cri),3),49). dl(arrival(11,(dandy,jfk),2),43). dl(start(12,(cri,teb),3),35). dl(arrival(12,(jfk,cri),2),20). dl(start(14,(lga,ryend),3),46). dl(arrival(14,(ryend,lga),2),32). dl(start(15,(cri,teb),3),51). dl(arrival(15,(teb,cri),2),36). dl(start(0,(lga,ryend),4),69). dl(arrival(0,(jfk,lga),3),55). dl(start(1,(lga,ryend),4),77). dl(arrival(1,(ryend,lga),3),63). dl(start(2,(cri,ryend),4),80). dl(arrival(2,(dandy,cri),3),67). dl(start(3,(cri,dandy),4),65). dl(arrival(3,(jfk,cri),3),50). dl(start(4,(cimbl,cri),4),69). dl(arrival(4,(jfk,cimbl),3),60). dl(start(6,(dandy,cri),4),60). dl(arrival(6,(teb,dandy),3),45). dl(start(7,(ryend,cri),4),77). dl(arrival(7,(jfk,ryend),3),64). dl(start(8,(cri,ryend),4),56). dl(arrival(8,(jfk,cri),3),43). dl(start(10,(cri,teb),4),62). dl(arrival(10,(jfk,cri),3),47). dl(start(11,(cri,teb),4),67). dl(arrival(11,(jfk,cri),3),52). dl(start(12,(teb,dandy),4),51). dl(arrival(12,(cri,teb),3),45). dl(start(15,(teb,jfk),4),79). dl(arrival(15,(cri,teb),3),61). dl(start(0,(ryend,cri),5),91). dl(arrival(0,(lga,ryend),4),78). dl(start(1,(ryend,dandy),5),92). dl(arrival(1,(lga,ryend),4),86). dl(start(2,(ryend,dandy),5),94). dl(arrival(2,(cri,ryend),4),88). dl(start(3,(dandy,lga),5),88). dl(arrival(3,(cri,dandy),4),75). dl(start(4,(cri,teb),5),90). dl(arrival(4,(cimbl,cri),4),75). dl(start(7,(cri,lga),5),95). dl(arrival(7,(ryend,cri),4),85). dl(start(8,(ryend,dandy),5),70). dl(arrival(8,(cri,ryend),4),64). dl(start(10,(teb,dandy),5),78). dl(arrival(10,(cri,teb),4),72). dl(start(11,(teb,dandy),5),83). dl(arrival(11,(cri,teb),4),77). dl(start(12,(dandy,cri),5),70). dl(arrival(12,(teb,dandy),4),55). dl(start(15,(jfk,teb),5),108). dl(arrival(15,(teb,jfk),4),90). dl(start(0,(cri,cimbl),6),108). dl(arrival(0,(ryend,cri),5),99). dl(start(1,(dandy,lga),6),109). dl(arrival(1,(ryend,dandy),5),96). dl(start(2,(dandy,lga),6),111). dl(arrival(2,(ryend,dandy),5),98). dl(start(3,(lga,cri),6),106). dl(arrival(3,(dandy,lga),5),96). dl(start(8,(dandy,lga),6),87). dl(arrival(8,(ryend,dandy),5),74). dl(start(10,(dandy,lga),6),95). dl(arrival(10,(teb,dandy),5),82). dl(start(11,(dandy,lga),6),100). dl(arrival(11,(teb,dandy),5),87). dl(start(12,(cri,cimbl),6),89). dl(arrival(12,(dandy,cri),5),80). dl(start(15,(teb,ryend),6),130). dl(arrival(15,(jfk,teb),5),119). dl(start(0,(cimbl,cri),7),123). dl(arrival(0,(cri,cimbl),6),114). dl(start(1,(lga,cri),7),127). dl(arrival(1,(dandy,lga),6),117). dl(start(2,(lga,teb),7),128). dl(arrival(2,(dandy,lga),6),119). dl(start(10,(lga,teb),7),112). dl(arrival(10,(dandy,lga),6),103). dl(start(11,(lga,teb),7),117). dl(arrival(11,(dandy,lga),6),108). dl(start(12,(cimbl,cri),7),104). dl(arrival(12,(cri,cimbl),6),95). dl(start(15,(ryend,cimbl),7),145). dl(arrival(15,(teb,ryend),6),137). dl(start(0,(cri,jfk),8),135). dl(arrival(0,(cimbl,cri),7),129). dl(start(1,(cri,jfk),8),139). dl(arrival(1,(lga,cri),7),133). dl(start(10,(teb,cimbl),8),123). dl(arrival(10,(lga,teb),7),117). dl(start(11,(teb,cimbl),8),128). dl(arrival(11,(lga,teb),7),122). dl(start(12,(cri,jfk),8),116). dl(arrival(12,(cimbl,cri),7),110). dl(start(15,(cimbl,ryend),8),158). dl(arrival(15,(ryend,cimbl),7),150). dl(start(10,(cimbl,ryend),9),135). dl(arrival(10,(teb,cimbl),8),127). dl(start(11,(cimbl,cri),9),141). dl(arrival(11,(teb,cimbl),8),132). dl(start(11,(cri,jfk),10),153). dl(arrival(11,(cimbl,cri),9),147). dl(start(10,(teb,teb),17),171). dl(arrival(10,(cimbl,teb),16),171). dl(start(10,(teb,teb),18),171). dl(arrival(10,(teb,teb),17),171). dl(start(10,(ryend,dandy),14),146). dl(arrival(10,(ryend,ryend),13),140). dl(start(10,(dandy,cimbl),15),157). dl(arrival(10,(ryend,dandy),14),150). dl(start(10,(cimbl,teb),16),167). dl(arrival(10,(dandy,cimbl),15),161). dl(start(6,(teb,teb),11),140). dl(arrival(6,(teb,teb),10),140). dl(start(13,(jfk,jfk),11),141). dl(arrival(13,(jfk,jfk),10),141). dl(start(8,(teb,teb),14),176). dl(arrival(8,(teb,teb),13),176). dl(start(8,(lga,cri),7),105). dl(arrival(8,(dandy,lga),6),95). dl(start(8,(cri,ryend),8),124). dl(arrival(8,(lga,cri),7),111). dl(start(8,(ryend,cimbl),9),140). dl(arrival(8,(cri,ryend),8),132). dl(start(8,(cimbl,ryend),10),153). dl(arrival(8,(ryend,cimbl),9),145). dl(start(8,(ryend,teb),11),169). dl(arrival(8,(cimbl,ryend),10),158). dl(start(6,(teb,teb),10),140). dl(arrival(6,(cimbl,teb),9),140). dl(start(13,(jfk,jfk),10),141). dl(arrival(13,(cri,jfk),9),141). dl(start(13,(ryend,cri),2),24). dl(arrival(13,(jfk,ryend),1),11). dl(start(13,(cri,lga),3),42). dl(arrival(13,(ryend,cri),2),32). dl(start(13,(lga,cri),4),58). dl(arrival(13,(cri,lga),3),48). dl(start(13,(cri,ryend),5),77). dl(arrival(13,(lga,cri),4),64). dl(start(13,(ryend,cimbl),6),93). dl(arrival(13,(cri,ryend),5),85). dl(start(13,(cimbl,ryend),7),106). dl(arrival(13,(ryend,cimbl),6),98). dl(start(13,(ryend,cri),8),124). dl(arrival(13,(cimbl,ryend),7),111). dl(start(13,(cri,jfk),9),138). dl(arrival(13,(ryend,cri),8),132). dl(start(6,(cri,lga),5),80). dl(arrival(6,(dandy,cri),4),70). dl(start(6,(lga,ryend),6),100). dl(arrival(6,(cri,lga),5),86). dl(start(6,(ryend,dandy),7),115). dl(arrival(6,(lga,ryend),6),109). dl(start(6,(dandy,cimbl),8),126). dl(arrival(6,(ryend,dandy),7),119). dl(start(6,(cimbl,teb),9),136). dl(arrival(6,(dandy,cimbl),8),130). dl(start(4,(teb,ryend),6),111). dl(arrival(4,(cri,teb),5),100). dl(start(4,(ryend,dandy),7),124). dl(arrival(4,(teb,ryend),6),118). dl(start(4,(dandy,jfk),8),147). dl(arrival(4,(ryend,dandy),7),128). dl(start(3,(jfk,jfk),11),177). dl(arrival(3,(cri,jfk),10),177). dl(start(3,(jfk,jfk),12),177). dl(arrival(3,(jfk,jfk),11),177). dl(start(3,(jfk,jfk),13),177). dl(arrival(3,(jfk,jfk),12),177). dl(start(3,(jfk,jfk),14),177). dl(arrival(3,(jfk,jfk),13),177). dl(start(2,(teb,cimbl),8),139). dl(arrival(2,(lga,teb),7),133). dl(start(7,(teb,teb),10),149). dl(arrival(7,(lga,teb),9),149). dl(start(7,(lga,teb),6),110). dl(arrival(7,(cri,lga),5),101). dl(start(7,(teb,cimbl),7),121). dl(arrival(7,(lga,teb),6),115). dl(start(7,(cimbl,lga),8),131). dl(arrival(7,(teb,cimbl),7),125). dl(start(7,(lga,teb),9),144). dl(arrival(7,(cimbl,lga),8),135). dl(start(14,(lga,lga),12),179). dl(arrival(14,(cimbl,lga),11),179). dl(start(14,(lga,lga),13),179). dl(arrival(14,(lga,lga),12),179). dl(start(2,(jfk,jfk),10),164). dl(arrival(2,(cimbl,jfk),9),164). dl(start(2,(jfk,jfk),14),164). dl(arrival(2,(jfk,jfk),13),164). dl(start(14,(lga,lga),14),179). dl(arrival(14,(lga,lga),13),179). dl(start(14,(lga,lga),15),179). dl(arrival(14,(lga,lga),14),179). dl(start(14,(ryend,jfk),4),73). dl(arrival(14,(lga,ryend),3),55). dl(start(14,(jfk,cri),5),90). dl(arrival(14,(ryend,jfk),4),84). dl(start(14,(cri,ryend),6),106). dl(arrival(14,(jfk,cri),5),93). dl(start(14,(ryend,dandy),7),120). dl(arrival(14,(cri,ryend),6),114). dl(start(14,(dandy,lga),8),137). dl(arrival(14,(ryend,dandy),7),124). dl(start(14,(lga,teb),9),154). dl(arrival(14,(dandy,lga),8),145). dl(start(14,(teb,cimbl),10),165). dl(arrival(14,(lga,teb),9),159). dl(start(14,(cimbl,lga),11),175). dl(arrival(14,(teb,cimbl),10),169). dl(start(3,(jfk,jfk),15),177). dl(arrival(3,(jfk,jfk),14),177). dl(start(3,(cri,jfk),10),174). dl(arrival(3,(dandy,cri),9),168). dl(start(3,(cri,ryend),7),125). dl(arrival(3,(lga,cri),6),112). dl(start(3,(ryend,dandy),8),139). dl(arrival(3,(cri,ryend),7),133). dl(start(3,(dandy,cri),9),158). dl(arrival(3,(ryend,dandy),8),143). dl(start(2,(jfk,jfk),15),164). dl(arrival(2,(jfk,jfk),14),164). dl(start(2,(cimbl,jfk),9),156). dl(arrival(2,(teb,cimbl),8),143). dl(arrival(5,(teb,teb),13),175). dl(arrival(9,(teb,teb),13),177). dl(start(5,(lga,jfk),1),0). dl(start(9,(ryend,jfk),1),0). dl(arrival(4,(jfk,jfk),11),159). dl(arrival(7,(teb,teb),12),149). dl(arrival(0,(jfk,jfk),13),138). dl(arrival(1,(jfk,jfk),13),142). dl(arrival(11,(jfk,jfk),13),156). dl(arrival(12,(jfk,jfk),13),119). dl(start(0,(lga,dandy),1),0). dl(start(1,(ryend,jfk),1),0). dl(start(2,(teb,jfk),1),0). dl(start(3,(cri,dandy),1),0). dl(start(4,(lga,dandy),1),0). dl(start(6,(lga,jfk),1),0). dl(start(7,(cimbl,dandy),1),0). dl(start(8,(cimbl,ryend),1),0). dl(start(10,(lga,ryend),1),0). dl(start(11,(jfk,dandy),1),0). dl(start(12,(teb,jfk),1),0). dl(start(13,(jfk,ryend),1),0). dl(start(14,(lga,ryend),1),0). dl(start(15,(jfk,teb),1),0). dl(arrival(15,(cimbl,ryend),8),163). dl(arrival(10,(teb,teb),18),171). dl(arrival(6,(teb,teb),11),140). dl(arrival(13,(jfk,jfk),11),141). dl(arrival(8,(teb,teb),14),176). dl(arrival(14,(lga,lga),15),179). dl(arrival(3,(jfk,jfk),15),177). dl(arrival(2,(jfk,jfk),15),164).