no_swap(3). no_swap(4). no_swap(5). no_swap(2). no_swap(6). no_swap(7). no_swap(8). no_swap(10). no_swap(13). no_swap(15). no_swap(0). no_swap(9). no_swap(11). no_swap(12). no_swap(14). no_swap(16). no_swap(1). number_of_agent_need_switch(0). as(3,(ryend,ryend),0,8). as(4,(ryend,ryend),0,8). as(5,(dandy,dandy),0,8). as(2,(ryend,ryend),0,9). as(3,(ryend,ryend),0,9). as(4,(ryend,ryend),0,9). as(5,(dandy,dandy),0,9). as(6,(ryend,ryend),0,9). as(7,(dandy,dandy),0,9). as(8,(ryend,ryend),0,9). as(10,(ryend,ryend),0,9). as(13,(cri,cri),0,9). as(15,(ryend,ryend),0,9). as(0,(cri,cri),0,10). as(2,(ryend,ryend),0,10). as(3,(ryend,ryend),0,10). as(4,(ryend,ryend),0,10). as(5,(dandy,dandy),0,10). as(6,(ryend,ryend),0,10). as(7,(dandy,dandy),0,10). as(8,(ryend,ryend),0,10). as(9,(dandy,dandy),0,10). as(10,(ryend,ryend),0,10). as(11,(jfk,jfk),0,10). as(12,(ryend,ryend),0,10). as(13,(cri,cri),0,10). as(14,(jfk,jfk),0,10). as(15,(ryend,ryend),0,10). as(16,(jfk,jfk),0,10). as(0,(cri,cri),0,11). as(1,(dandy,dandy),0,11). as(2,(ryend,ryend),0,11). as(3,(ryend,ryend),0,11). as(4,(ryend,ryend),0,11). as(5,(dandy,dandy),0,11). as(6,(ryend,ryend),0,11). as(7,(dandy,dandy),0,11). as(8,(ryend,ryend),0,11). as(9,(dandy,dandy),0,11). as(10,(ryend,ryend),0,11). as(11,(jfk,jfk),0,11). as(12,(ryend,ryend),0,11). as(13,(cri,cri),0,11). as(14,(jfk,jfk),0,11). as(15,(ryend,ryend),0,11). as(16,(jfk,jfk),0,11). as(0,(cri,cri),0,12). as(1,(dandy,dandy),0,12). as(2,(ryend,ryend),0,12). as(3,(ryend,ryend),0,12). as(4,(ryend,ryend),0,12). as(5,(dandy,dandy),0,12). as(6,(ryend,ryend),0,12). as(7,(dandy,dandy),0,12). as(8,(ryend,ryend),0,12). as(9,(dandy,dandy),0,12). as(10,(ryend,ryend),0,12). as(11,(jfk,jfk),0,12). as(12,(ryend,ryend),0,12). as(13,(cri,cri),0,12). as(14,(jfk,jfk),0,12). as(15,(ryend,ryend),0,12). as(16,(jfk,jfk),0,12). as(0,(cri,cri),0,13). as(1,(dandy,dandy),0,13). as(2,(ryend,ryend),0,13). as(3,(ryend,ryend),0,13). as(4,(ryend,ryend),0,13). as(5,(dandy,dandy),0,13). as(6,(ryend,ryend),0,13). as(7,(dandy,dandy),0,13). as(8,(ryend,ryend),0,13). as(9,(dandy,dandy),0,13). as(10,(ryend,ryend),0,13). as(11,(jfk,jfk),0,13). as(12,(ryend,ryend),0,13). as(13,(cri,cri),0,13). as(14,(jfk,jfk),0,13). as(15,(ryend,ryend),0,13). as(16,(jfk,jfk),0,13). as(0,(lga,jfk),4,1). as(1,(ryend,jfk),4,1). as(2,(dandy,jfk),4,1). as(3,(teb,jfk),4,1). as(4,(dandy,jfk),4,1). as(5,(dandy,jfk),4,1). as(6,(dandy,jfk),4,1). as(7,(jfk,dandy),4,1). as(8,(cri,jfk),4,1). as(9,(jfk,dandy),4,1). as(10,(cri,jfk),4,1). as(11,(dandy,jfk),1,1). as(12,(jfk,dandy),4,1). as(13,(jfk,dandy),4,1). as(14,(cimbl,jfk),4,1). as(15,(dandy,ryend),4,1). as(16,(teb,jfk),4,1). as(0,(jfk,dandy),4,2). as(1,(jfk,dandy),4,2). as(2,(jfk,ryend),4,2). as(3,(jfk,teb),4,2). as(4,(jfk,teb),4,2). as(5,(jfk,ryend),4,2). as(6,(jfk,ryend),4,2). as(7,(dandy,teb),3,2). as(8,(jfk,teb),4,2). as(9,(dandy,teb),1,2). as(10,(jfk,ryend),4,2). as(11,(jfk,ryend),4,2). as(12,(dandy,cri),3,2). as(13,(dandy,teb),1,2). as(14,(jfk,ryend),4,2). as(15,(ryend,jfk),4,2). as(16,(jfk,teb),1,2). as(0,(dandy,lga),2,3). as(1,(dandy,lga),4,3). as(2,(ryend,cimbl),4,3). as(3,(teb,jfk),4,3). as(4,(teb,jfk),4,3). as(5,(ryend,lga),4,3). as(6,(ryend,cimbl),4,3). as(7,(teb,jfk),4,3). as(8,(teb,jfk),4,3). as(9,(teb,cri),4,3). as(10,(ryend,lga),3,3). as(11,(ryend,cimbl),4,3). as(12,(cri,dandy),4,3). as(13,(teb,cri),4,3). as(14,(ryend,lga),4,3). as(15,(jfk,cimbl),4,3). as(16,(teb,cri),4,3). as(0,(lga,dandy),4,4). as(1,(lga,dandy),4,4). as(2,(cimbl,jfk),4,4). as(3,(jfk,cimbl),4,4). as(4,(jfk,cimbl),4,4). as(5,(lga,teb),4,4). as(6,(cimbl,jfk),4,4). as(7,(jfk,cimbl),4,4). as(8,(jfk,cimbl),4,4). as(9,(cri,ryend),4,4). as(10,(lga,teb),4,4). as(11,(cimbl,jfk),4,4). as(12,(dandy,cimbl),4,4). as(13,(cri,ryend),4,4). as(14,(lga,teb),4,4). as(15,(cimbl,jfk),4,4). as(16,(cri,teb),3,4). as(0,(dandy,cimbl),2,5). as(1,(dandy,cimbl),1,5). as(2,(jfk,cimbl),4,5). as(3,(cimbl,lga),4,5). as(4,(cimbl,cri),4,5). as(5,(teb,cri),4,5). as(6,(jfk,cimbl),4,5). as(7,(cimbl,lga),4,5). as(8,(cimbl,jfk),4,5). as(9,(ryend,cri),1,5). as(10,(teb,cri),4,5). as(11,(jfk,dandy),2,5). as(12,(cimbl,jfk),4,5). as(13,(ryend,cri),1,5). as(14,(teb,cri),4,5). as(15,(jfk,cri),4,5). as(16,(teb,cri),4,5). as(0,(cimbl,cri),4,6). as(1,(cimbl,cri),4,6). as(2,(cimbl,cri),4,6). as(3,(lga,dandy),4,6). as(4,(cri,dandy),3,6). as(5,(cri,ryend),4,6). as(6,(cimbl,cri),4,6). as(7,(lga,dandy),4,6). as(8,(jfk,lga),2,6). as(9,(cri,lga),4,6). as(10,(cri,ryend),4,6). as(11,(dandy,ryend),4,6). as(12,(jfk,lga),4,6). as(13,(cri,lga),4,6). as(14,(cri,lga),4,6). as(15,(cri,ryend),4,6). as(16,(cri,ryend),4,6). as(0,(cri,lga),4,7). as(1,(cri,lga),4,7). as(2,(cri,cimbl),4,7). as(3,(dandy,ryend),4,7). as(4,(dandy,ryend),4,7). as(5,(ryend,dandy),4,7). as(6,(cri,cimbl),4,7). as(7,(dandy,ryend),4,7). as(8,(lga,cri),4,7). as(9,(lga,cri),4,7). as(10,(ryend,dandy),4,7). as(11,(ryend,cimbl),4,7). as(12,(lga,cri),4,7). as(13,(lga,jfk),4,7). as(14,(lga,cri),4,7). as(15,(ryend,dandy),4,7). as(16,(ryend,cimbl),4,7). as(0,(lga,jfk),4,8). as(1,(lga,jfk),4,8). as(2,(cimbl,ryend),4,8). as(6,(cimbl,ryend),4,8). as(7,(ryend,dandy),2,8). as(8,(cri,ryend),2,8). as(9,(cri,cimbl),2,8). as(10,(dandy,ryend),3,8). as(11,(cimbl,lga),1,8). as(12,(cri,jfk),4,8). as(13,(jfk,cri),4,8). as(14,(cri,lga),1,8). as(15,(dandy,ryend),4,8). as(16,(cimbl,cri),4,8). as(0,(jfk,cri),3,9). as(1,(jfk,cimbl),1,9). as(9,(cimbl,dandy),4,9). as(11,(lga,jfk),4,9). as(12,(jfk,ryend),1,9). as(14,(lga,jfk),4,9). as(16,(cri,jfk),3,9). as(1,(cimbl,dandy),4,10). dl(start(3,(ryend,ryend),8),131). dl(arrival(3,(dandy,ryend),7),131). dl(start(4,(ryend,ryend),8),141). dl(arrival(4,(dandy,ryend),7),141). dl(start(5,(dandy,dandy),8),134). dl(arrival(5,(ryend,dandy),7),134). dl(start(2,(ryend,ryend),9),139). dl(arrival(2,(cimbl,ryend),8),139). dl(start(3,(ryend,ryend),9),131). dl(arrival(3,(ryend,ryend),8),131). dl(start(4,(ryend,ryend),9),141). dl(arrival(4,(ryend,ryend),8),141). dl(start(5,(dandy,dandy),9),134). dl(arrival(5,(dandy,dandy),8),134). dl(start(6,(ryend,ryend),9),139). dl(arrival(6,(cimbl,ryend),8),139). dl(start(7,(dandy,dandy),9),123). dl(arrival(7,(ryend,dandy),8),123). dl(start(8,(ryend,ryend),9),156). dl(arrival(8,(cri,ryend),8),156). dl(start(10,(ryend,ryend),9),135). dl(arrival(10,(dandy,ryend),8),135). dl(start(13,(cri,cri),9),130). dl(arrival(13,(jfk,cri),8),130). dl(start(15,(ryend,ryend),9),125). dl(arrival(15,(dandy,ryend),8),125). dl(start(0,(cri,cri),10),146). dl(arrival(0,(jfk,cri),9),146). dl(start(2,(ryend,ryend),10),139). dl(arrival(2,(ryend,ryend),9),139). dl(start(3,(ryend,ryend),10),131). dl(arrival(3,(ryend,ryend),9),131). dl(start(4,(ryend,ryend),10),141). dl(arrival(4,(ryend,ryend),9),141). dl(start(5,(dandy,dandy),10),134). dl(arrival(5,(dandy,dandy),9),134). dl(start(6,(ryend,ryend),10),139). dl(arrival(6,(ryend,ryend),9),139). dl(start(7,(dandy,dandy),10),123). dl(arrival(7,(dandy,dandy),9),123). dl(start(8,(ryend,ryend),10),156). dl(arrival(8,(ryend,ryend),9),156). dl(start(9,(dandy,dandy),10),147). dl(arrival(9,(cimbl,dandy),9),147). dl(start(10,(ryend,ryend),10),135). dl(arrival(10,(ryend,ryend),9),135). dl(start(11,(jfk,jfk),10),155). dl(arrival(11,(lga,jfk),9),155). dl(start(12,(ryend,ryend),10),164). dl(arrival(12,(jfk,ryend),9),164). dl(start(13,(cri,cri),10),130). dl(arrival(13,(cri,cri),9),130). dl(start(14,(jfk,jfk),10),163). dl(arrival(14,(lga,jfk),9),163). dl(start(15,(ryend,ryend),10),125). dl(arrival(15,(ryend,ryend),9),125). dl(start(16,(jfk,jfk),10),173). dl(arrival(16,(cri,jfk),9),173). dl(start(0,(cri,cri),11),146). dl(arrival(0,(cri,cri),10),146). dl(start(1,(dandy,dandy),11),174). dl(arrival(1,(cimbl,dandy),10),174). dl(start(2,(ryend,ryend),11),139). dl(arrival(2,(ryend,ryend),10),139). dl(start(3,(ryend,ryend),11),131). dl(arrival(3,(ryend,ryend),10),131). dl(start(4,(ryend,ryend),11),141). dl(arrival(4,(ryend,ryend),10),141). dl(start(5,(dandy,dandy),11),134). dl(arrival(5,(dandy,dandy),10),134). dl(start(6,(ryend,ryend),11),139). dl(arrival(6,(ryend,ryend),10),139). dl(start(7,(dandy,dandy),11),123). dl(arrival(7,(dandy,dandy),10),123). dl(start(8,(ryend,ryend),11),156). dl(arrival(8,(ryend,ryend),10),156). dl(start(9,(dandy,dandy),11),147). dl(arrival(9,(dandy,dandy),10),147). dl(start(10,(ryend,ryend),11),135). dl(arrival(10,(ryend,ryend),10),135). dl(start(11,(jfk,jfk),11),155). dl(arrival(11,(jfk,jfk),10),155). dl(start(12,(ryend,ryend),11),164). dl(arrival(12,(ryend,ryend),10),164). dl(start(13,(cri,cri),11),130). dl(arrival(13,(cri,cri),10),130). dl(start(14,(jfk,jfk),11),163). dl(arrival(14,(jfk,jfk),10),163). dl(start(15,(ryend,ryend),11),125). dl(arrival(15,(ryend,ryend),10),125). dl(start(16,(jfk,jfk),11),173). dl(arrival(16,(jfk,jfk),10),173). dl(start(0,(cri,cri),12),146). dl(arrival(0,(cri,cri),11),146). dl(start(1,(dandy,dandy),12),174). dl(arrival(1,(dandy,dandy),11),174). dl(start(2,(ryend,ryend),12),139). dl(arrival(2,(ryend,ryend),11),139). dl(start(3,(ryend,ryend),12),131). dl(arrival(3,(ryend,ryend),11),131). dl(start(4,(ryend,ryend),12),141). dl(arrival(4,(ryend,ryend),11),141). dl(start(5,(dandy,dandy),12),134). dl(arrival(5,(dandy,dandy),11),134). dl(start(6,(ryend,ryend),12),139). dl(arrival(6,(ryend,ryend),11),139). dl(start(7,(dandy,dandy),12),123). dl(arrival(7,(dandy,dandy),11),123). dl(start(8,(ryend,ryend),12),156). dl(arrival(8,(ryend,ryend),11),156). dl(start(9,(dandy,dandy),12),147). dl(arrival(9,(dandy,dandy),11),147). dl(start(10,(ryend,ryend),12),135). dl(arrival(10,(ryend,ryend),11),135). dl(start(11,(jfk,jfk),12),155). dl(arrival(11,(jfk,jfk),11),155). dl(start(12,(ryend,ryend),12),164). dl(arrival(12,(ryend,ryend),11),164). dl(start(13,(cri,cri),12),130). dl(arrival(13,(cri,cri),11),130). dl(start(14,(jfk,jfk),12),163). dl(arrival(14,(jfk,jfk),11),163). dl(start(15,(ryend,ryend),12),125). dl(arrival(15,(ryend,ryend),11),125). dl(start(16,(jfk,jfk),12),173). dl(arrival(16,(jfk,jfk),11),173). dl(start(0,(cri,cri),13),146). dl(arrival(0,(cri,cri),12),146). dl(start(1,(dandy,dandy),13),174). dl(arrival(1,(dandy,dandy),12),174). dl(start(2,(ryend,ryend),13),139). dl(arrival(2,(ryend,ryend),12),139). dl(start(3,(ryend,ryend),13),131). dl(arrival(3,(ryend,ryend),12),131). dl(start(4,(ryend,ryend),13),141). dl(arrival(4,(ryend,ryend),12),141). dl(start(5,(dandy,dandy),13),134). dl(arrival(5,(dandy,dandy),12),134). dl(start(6,(ryend,ryend),13),139). dl(arrival(6,(ryend,ryend),12),139). dl(start(7,(dandy,dandy),13),123). dl(arrival(7,(dandy,dandy),12),123). dl(start(8,(ryend,ryend),13),156). dl(arrival(8,(ryend,ryend),12),156). dl(start(9,(dandy,dandy),13),147). dl(arrival(9,(dandy,dandy),12),147). dl(start(10,(ryend,ryend),13),135). dl(arrival(10,(ryend,ryend),12),135). dl(start(11,(jfk,jfk),13),155). dl(arrival(11,(jfk,jfk),12),155). dl(start(12,(ryend,ryend),13),164). dl(arrival(12,(ryend,ryend),12),164). dl(start(13,(cri,cri),13),130). dl(arrival(13,(cri,cri),12),130). dl(start(14,(jfk,jfk),13),163). dl(arrival(14,(jfk,jfk),12),163). dl(start(15,(ryend,ryend),13),125). dl(arrival(15,(ryend,ryend),12),125). dl(start(16,(jfk,jfk),13),173). dl(arrival(16,(jfk,jfk),12),173). dl(start(0,(jfk,dandy),2),25). dl(arrival(0,(lga,jfk),1),6). dl(start(1,(jfk,dandy),2),30). dl(arrival(1,(ryend,jfk),1),11). dl(start(2,(jfk,ryend),2),30). dl(arrival(2,(dandy,jfk),1),12). dl(start(3,(jfk,teb),2),29). dl(arrival(3,(teb,jfk),1),11). dl(start(4,(jfk,teb),2),30). dl(arrival(4,(dandy,jfk),1),12). dl(start(5,(jfk,ryend),2),30). dl(arrival(5,(dandy,jfk),1),12). dl(start(6,(jfk,ryend),2),30). dl(arrival(6,(dandy,jfk),1),12). dl(start(7,(dandy,teb),2),18). dl(arrival(7,(jfk,dandy),1),12). dl(start(8,(jfk,teb),2),21). dl(arrival(8,(cri,jfk),1),3). dl(start(9,(dandy,teb),2),18). dl(arrival(9,(jfk,dandy),1),12). dl(start(10,(jfk,ryend),2),21). dl(arrival(10,(cri,jfk),1),3). dl(start(11,(jfk,ryend),2),30). dl(arrival(11,(dandy,jfk),1),12). dl(start(12,(dandy,cri),2),27). dl(arrival(12,(jfk,dandy),1),12). dl(start(13,(dandy,teb),2),18). dl(arrival(13,(jfk,dandy),1),12). dl(start(14,(jfk,ryend),2),26). dl(arrival(14,(cimbl,jfk),1),8). dl(start(15,(ryend,jfk),2),22). dl(arrival(15,(dandy,ryend),1),4). dl(start(16,(jfk,teb),2),29). dl(arrival(16,(teb,jfk),1),11). dl(start(0,(dandy,lga),3),50). dl(arrival(0,(jfk,dandy),2),37). dl(start(1,(dandy,lga),3),55). dl(arrival(1,(jfk,dandy),2),42). dl(start(2,(ryend,cimbl),3),49). dl(arrival(2,(jfk,ryend),2),41). dl(start(3,(teb,jfk),3),58). dl(arrival(3,(jfk,teb),2),40). dl(start(4,(teb,jfk),3),59). dl(arrival(4,(jfk,teb),2),41). dl(start(5,(ryend,lga),3),55). dl(arrival(5,(jfk,ryend),2),41). dl(start(6,(ryend,cimbl),3),49). dl(arrival(6,(jfk,ryend),2),41). dl(start(7,(teb,jfk),3),40). dl(arrival(7,(dandy,teb),2),22). dl(start(8,(teb,jfk),3),50). dl(arrival(8,(jfk,teb),2),32). dl(start(9,(teb,cri),3),37). dl(arrival(9,(dandy,teb),2),22). dl(start(10,(ryend,lga),3),46). dl(arrival(10,(jfk,ryend),2),32). dl(start(11,(ryend,cimbl),3),49). dl(arrival(11,(jfk,ryend),2),41). dl(start(12,(cri,dandy),3),52). dl(arrival(12,(dandy,cri),2),37). dl(start(13,(teb,cri),3),37). dl(arrival(13,(dandy,teb),2),22). dl(start(14,(ryend,lga),3),51). dl(arrival(14,(jfk,ryend),2),37). dl(start(15,(jfk,cimbl),3),46). dl(arrival(15,(ryend,jfk),2),33). dl(start(16,(teb,cri),3),55). dl(arrival(16,(jfk,teb),2),40). dl(start(0,(lga,dandy),4),71). dl(arrival(0,(dandy,lga),3),58). dl(start(1,(lga,dandy),4),76). dl(arrival(1,(dandy,lga),3),63). dl(start(2,(cimbl,jfk),4),67). dl(arrival(2,(ryend,cimbl),3),54). dl(start(3,(jfk,cimbl),4),82). dl(arrival(3,(teb,jfk),3),69). dl(start(4,(jfk,cimbl),4),83). dl(arrival(4,(teb,jfk),3),70). dl(start(5,(lga,teb),4),73). dl(arrival(5,(ryend,lga),3),64). dl(start(6,(cimbl,jfk),4),67). dl(arrival(6,(ryend,cimbl),3),54). dl(start(7,(jfk,cimbl),4),64). dl(arrival(7,(teb,jfk),3),51). dl(start(8,(jfk,cimbl),4),74). dl(arrival(8,(teb,jfk),3),61). dl(start(9,(cri,ryend),4),60). dl(arrival(9,(teb,cri),3),47). dl(start(10,(lga,teb),4),64). dl(arrival(10,(ryend,lga),3),55). dl(start(11,(cimbl,jfk),4),67). dl(arrival(11,(ryend,cimbl),3),54). dl(start(12,(dandy,cimbl),4),69). dl(arrival(12,(cri,dandy),3),62). dl(start(13,(cri,ryend),4),60). dl(arrival(13,(teb,cri),3),47). dl(start(14,(lga,teb),4),69). dl(arrival(14,(ryend,lga),3),60). dl(start(15,(cimbl,jfk),4),67). dl(arrival(15,(jfk,cimbl),3),54). dl(start(16,(cri,teb),4),80). dl(arrival(16,(teb,cri),3),65). dl(start(0,(dandy,cimbl),5),86). dl(arrival(0,(lga,dandy),4),79). dl(start(1,(dandy,cimbl),5),91). dl(arrival(1,(lga,dandy),4),84). dl(start(2,(jfk,cimbl),5),88). dl(arrival(2,(cimbl,jfk),4),75). dl(start(3,(cimbl,lga),5),96). dl(arrival(3,(jfk,cimbl),4),90). dl(start(4,(cimbl,cri),5),100). dl(arrival(4,(jfk,cimbl),4),91). dl(start(5,(teb,cri),5),93). dl(arrival(5,(lga,teb),4),78). dl(start(6,(jfk,cimbl),5),88). dl(arrival(6,(cimbl,jfk),4),75). dl(start(7,(cimbl,lga),5),78). dl(arrival(7,(jfk,cimbl),4),72). dl(start(8,(cimbl,jfk),5),95). dl(arrival(8,(jfk,cimbl),4),82). dl(start(9,(ryend,cri),5),81). dl(arrival(9,(cri,ryend),4),68). dl(start(10,(teb,cri),5),84). dl(arrival(10,(lga,teb),4),69). dl(start(11,(jfk,dandy),5),94). dl(arrival(11,(cimbl,jfk),4),75). dl(start(12,(cimbl,jfk),5),86). dl(arrival(12,(dandy,cimbl),4),73). dl(start(13,(ryend,cri),5),81). dl(arrival(13,(cri,ryend),4),68). dl(start(14,(teb,cri),5),89). dl(arrival(14,(lga,teb),4),74). dl(start(15,(jfk,cri),5),81). dl(arrival(15,(cimbl,jfk),4),75). dl(start(16,(teb,cri),5),105). dl(arrival(16,(cri,teb),4),90). dl(start(0,(cimbl,cri),6),99). dl(arrival(0,(dandy,cimbl),5),90). dl(start(1,(cimbl,cri),6),104). dl(arrival(1,(dandy,cimbl),5),95). dl(start(2,(cimbl,cri),6),105). dl(arrival(2,(jfk,cimbl),5),96). dl(start(3,(lga,dandy),6),113). dl(arrival(3,(cimbl,lga),5),100). dl(start(4,(cri,dandy),6),121). dl(arrival(4,(cimbl,cri),5),106). dl(start(5,(cri,ryend),6),116). dl(arrival(5,(teb,cri),5),103). dl(start(6,(cimbl,cri),6),105). dl(arrival(6,(jfk,cimbl),5),96). dl(start(7,(lga,dandy),6),95). dl(arrival(7,(cimbl,lga),5),82). dl(start(8,(jfk,lga),6),113). dl(arrival(8,(cimbl,jfk),5),103). dl(start(9,(cri,lga),6),99). dl(arrival(9,(ryend,cri),5),89). dl(start(10,(cri,ryend),6),107). dl(arrival(10,(teb,cri),5),94). dl(start(11,(dandy,ryend),6),112). dl(arrival(11,(jfk,dandy),5),106). dl(start(12,(jfk,lga),6),104). dl(arrival(12,(cimbl,jfk),5),94). dl(start(13,(cri,lga),6),99). dl(arrival(13,(ryend,cri),5),89). dl(start(14,(cri,lga),6),109). dl(arrival(14,(teb,cri),5),99). dl(start(15,(cri,ryend),6),97). dl(arrival(15,(jfk,cri),5),84). dl(start(16,(cri,ryend),6),128). dl(arrival(16,(teb,cri),5),115). dl(start(0,(cri,lga),7),115). dl(arrival(0,(cimbl,cri),6),105). dl(start(1,(cri,lga),7),120). dl(arrival(1,(cimbl,cri),6),110). dl(start(2,(cri,cimbl),7),120). dl(arrival(2,(cimbl,cri),6),111). dl(start(3,(dandy,ryend),7),127). dl(arrival(3,(lga,dandy),6),121). dl(start(4,(dandy,ryend),7),137). dl(arrival(4,(cri,dandy),6),131). dl(start(5,(ryend,dandy),7),130). dl(arrival(5,(cri,ryend),6),124). dl(start(6,(cri,cimbl),7),120). dl(arrival(6,(cimbl,cri),6),111). dl(start(7,(dandy,ryend),7),109). dl(arrival(7,(lga,dandy),6),103). dl(start(8,(lga,cri),7),129). dl(arrival(8,(jfk,lga),6),119). dl(start(9,(lga,cri),7),115). dl(arrival(9,(cri,lga),6),105). dl(start(10,(ryend,dandy),7),121). dl(arrival(10,(cri,ryend),6),115). dl(start(11,(ryend,cimbl),7),124). dl(arrival(11,(dandy,ryend),6),116). dl(start(12,(lga,cri),7),120). dl(arrival(12,(jfk,lga),6),110). dl(start(13,(lga,jfk),7),115). dl(arrival(13,(cri,lga),6),105). dl(start(14,(lga,cri),7),125). dl(arrival(14,(cri,lga),6),115). dl(start(15,(ryend,dandy),7),111). dl(arrival(15,(cri,ryend),6),105). dl(start(16,(ryend,cimbl),7),144). dl(arrival(16,(cri,ryend),6),136). dl(start(0,(lga,jfk),8),131). dl(arrival(0,(cri,lga),7),121). dl(start(1,(lga,jfk),8),136). dl(arrival(1,(cri,lga),7),126). dl(start(2,(cimbl,ryend),8),134). dl(arrival(2,(cri,cimbl),7),126). dl(start(6,(cimbl,ryend),8),134). dl(arrival(6,(cri,cimbl),7),126). dl(start(7,(ryend,dandy),8),119). dl(arrival(7,(dandy,ryend),7),113). dl(start(8,(cri,ryend),8),148). dl(arrival(8,(lga,cri),7),135). dl(start(9,(cri,cimbl),8),130). dl(arrival(9,(lga,cri),7),121). dl(start(10,(dandy,ryend),8),131). dl(arrival(10,(ryend,dandy),7),125). dl(start(11,(cimbl,lga),8),135). dl(arrival(11,(ryend,cimbl),7),129). dl(start(12,(cri,jfk),8),132). dl(arrival(12,(lga,cri),7),126). dl(start(13,(jfk,cri),8),127). dl(arrival(13,(lga,jfk),7),121). dl(start(14,(cri,lga),8),141). dl(arrival(14,(lga,cri),7),131). dl(start(15,(dandy,ryend),8),121). dl(arrival(15,(ryend,dandy),7),115). dl(start(16,(cimbl,cri),8),158). dl(arrival(16,(ryend,cimbl),7),149). dl(start(0,(jfk,cri),9),143). dl(arrival(0,(lga,jfk),8),137). dl(start(1,(jfk,cimbl),9),155). dl(arrival(1,(lga,jfk),8),142). dl(start(9,(cimbl,dandy),9),143). dl(arrival(9,(cri,cimbl),8),136). dl(start(11,(lga,jfk),9),149). dl(arrival(11,(cimbl,lga),8),139). dl(start(12,(jfk,ryend),9),153). dl(arrival(12,(cri,jfk),8),135). dl(start(14,(lga,jfk),9),157). dl(arrival(14,(cri,lga),8),147). dl(start(16,(cri,jfk),9),170). dl(arrival(16,(cimbl,cri),8),164). dl(start(1,(cimbl,dandy),10),170). dl(arrival(1,(jfk,cimbl),9),163). dl(arrival(0,(cri,cri),13),146). dl(arrival(1,(dandy,dandy),13),174). dl(arrival(2,(ryend,ryend),13),139). dl(arrival(3,(ryend,ryend),13),131). dl(arrival(4,(ryend,ryend),13),141). dl(arrival(5,(dandy,dandy),13),134). dl(arrival(6,(ryend,ryend),13),139). dl(arrival(7,(dandy,dandy),13),123). dl(arrival(8,(ryend,ryend),13),156). dl(arrival(9,(dandy,dandy),13),147). dl(arrival(10,(ryend,ryend),13),135). dl(arrival(11,(jfk,jfk),13),155). dl(arrival(12,(ryend,ryend),13),164). dl(arrival(13,(cri,cri),13),130). dl(arrival(14,(jfk,jfk),13),163). dl(arrival(15,(ryend,ryend),13),125). dl(arrival(16,(jfk,jfk),13),173). dl(start(0,(lga,jfk),1),0). dl(start(1,(ryend,jfk),1),0). dl(start(2,(dandy,jfk),1),0). dl(start(3,(teb,jfk),1),0). dl(start(4,(dandy,jfk),1),0). dl(start(5,(dandy,jfk),1),0). dl(start(6,(dandy,jfk),1),0). dl(start(7,(jfk,dandy),1),0). dl(start(8,(cri,jfk),1),0). dl(start(9,(jfk,dandy),1),0). dl(start(10,(cri,jfk),1),0). dl(start(11,(dandy,jfk),1),0). dl(start(12,(jfk,dandy),1),0). dl(start(13,(jfk,dandy),1),0). dl(start(14,(cimbl,jfk),1),0). dl(start(15,(dandy,ryend),1),0). dl(start(16,(teb,jfk),1),0).