no_swap(0). no_swap(1). no_swap(8). no_swap(11). no_swap(3). no_swap(6). no_swap(2). no_swap(4). no_swap(5). no_swap(9). no_swap(10). no_swap(13). no_swap(14). no_swap(7). no_swap(12). number_of_agent_need_switch(0). as(0,(ryend,ryend),0,9). as(1,(ryend,ryend),0,9). as(8,(ryend,ryend),0,9). as(11,(ryend,ryend),0,9). as(0,(ryend,ryend),0,10). as(1,(ryend,ryend),0,10). as(3,(ryend,ryend),0,10). as(6,(ryend,ryend),0,10). as(8,(ryend,ryend),0,10). as(11,(ryend,ryend),0,10). as(0,(ryend,ryend),0,11). as(1,(ryend,ryend),0,11). as(2,(dandy,dandy),0,11). as(3,(ryend,ryend),0,11). as(4,(dandy,dandy),0,11). as(5,(dandy,dandy),0,11). as(6,(ryend,ryend),0,11). as(8,(ryend,ryend),0,11). as(9,(ryend,ryend),0,11). as(10,(ryend,ryend),0,11). as(11,(ryend,ryend),0,11). as(13,(ryend,ryend),0,11). as(14,(ryend,ryend),0,11). as(0,(ryend,ryend),0,12). as(1,(ryend,ryend),0,12). as(2,(dandy,dandy),0,12). as(3,(ryend,ryend),0,12). as(4,(dandy,dandy),0,12). as(5,(dandy,dandy),0,12). as(6,(ryend,ryend),0,12). as(7,(dandy,dandy),0,12). as(8,(ryend,ryend),0,12). as(9,(ryend,ryend),0,12). as(10,(ryend,ryend),0,12). as(11,(ryend,ryend),0,12). as(12,(ryend,ryend),0,12). as(13,(ryend,ryend),0,12). as(14,(ryend,ryend),0,12). as(0,(ryend,ryend),0,13). as(1,(ryend,ryend),0,13). as(2,(dandy,dandy),0,13). as(3,(ryend,ryend),0,13). as(4,(dandy,dandy),0,13). as(5,(dandy,dandy),0,13). as(6,(ryend,ryend),0,13). as(7,(dandy,dandy),0,13). as(8,(ryend,ryend),0,13). as(9,(ryend,ryend),0,13). as(10,(ryend,ryend),0,13). as(11,(ryend,ryend),0,13). as(12,(ryend,ryend),0,13). as(13,(ryend,ryend),0,13). as(14,(ryend,ryend),0,13). as(0,(ryend,jfk),3,1). as(1,(lga,ryend),4,1). as(2,(teb,jfk),4,1). as(3,(lga,ryend),4,1). as(4,(cimbl,jfk),4,1). as(5,(jfk,dandy),4,1). as(6,(cri,jfk),4,1). as(7,(dandy,jfk),1,1). as(8,(cimbl,jfk),1,1). as(9,(jfk,dandy),4,1). as(10,(dandy,cri),4,1). as(11,(teb,jfk),4,1). as(12,(cimbl,teb),4,1). as(13,(ryend,lga),4,1). as(14,(lga,ryend),4,1). as(0,(jfk,dandy),4,2). as(1,(ryend,lga),4,2). as(2,(jfk,dandy),4,2). as(3,(ryend,lga),4,2). as(4,(jfk,dandy),4,2). as(5,(dandy,cri),2,2). as(6,(jfk,ryend),4,2). as(7,(jfk,teb),4,2). as(8,(jfk,ryend),4,2). as(9,(dandy,cri),1,2). as(10,(cri,dandy),4,2). as(11,(jfk,cri),4,2). as(12,(teb,cri),4,2). as(13,(lga,ryend),4,2). as(14,(ryend,lga),4,2). as(0,(dandy,teb),4,3). as(1,(lga,cri),4,3). as(2,(dandy,teb),4,3). as(3,(lga,ryend),4,3). as(4,(dandy,teb),4,3). as(5,(cri,teb),4,3). as(6,(ryend,cri),4,3). as(7,(teb,lga),4,3). as(8,(ryend,lga),4,3). as(9,(cri,teb),4,3). as(10,(dandy,lga),4,3). as(11,(cri,teb),4,3). as(12,(cri,dandy),4,3). as(13,(ryend,cri),4,3). as(14,(lga,ryend),4,3). as(0,(teb,lga),4,4). as(1,(cri,teb),4,4). as(2,(teb,jfk),2,4). as(3,(ryend,cri),4,4). as(4,(teb,ryend),4,4). as(5,(teb,ryend),4,4). as(6,(cri,teb),4,4). as(7,(lga,dandy),4,4). as(8,(lga,dandy),4,4). as(9,(teb,lga),4,4). as(10,(lga,dandy),4,4). as(11,(teb,lga),4,4). as(12,(dandy,cimbl),4,4). as(13,(cri,ryend),4,4). as(14,(ryend,cri),4,4). as(0,(lga,dandy),4,5). as(1,(teb,lga),4,5). as(2,(jfk,cimbl),4,5). as(3,(cri,ryend),4,5). as(4,(ryend,lga),2,5). as(5,(ryend,cri),3,5). as(6,(teb,ryend),4,5). as(7,(dandy,cimbl),4,5). as(8,(dandy,cimbl),2,5). as(9,(lga,dandy),4,5). as(10,(dandy,cimbl),4,5). as(11,(lga,dandy),4,5). as(12,(cimbl,cri),4,5). as(13,(ryend,teb),4,5). as(14,(cri,ryend),4,5). as(0,(dandy,teb),4,6). as(1,(lga,cri),4,6). as(2,(cimbl,cri),4,6). as(3,(ryend,dandy),4,6). as(4,(lga,cri),4,6). as(5,(cri,lga),4,6). as(6,(ryend,cimbl),4,6). as(7,(cimbl,cri),4,6). as(8,(cimbl,cri),4,6). as(9,(dandy,teb),4,6). as(10,(cimbl,cri),4,6). as(11,(dandy,teb),4,6). as(12,(cri,lga),4,6). as(13,(teb,lga),1,6). as(14,(ryend,cimbl),1,6). as(0,(teb,cimbl),4,7). as(1,(cri,cimbl),4,7). as(2,(cri,jfk),4,7). as(3,(dandy,teb),4,7). as(4,(cri,jfk),2,7). as(5,(lga,cri),4,7). as(6,(cimbl,ryend),4,7). as(7,(cri,jfk),1,7). as(8,(cri,jfk),1,7). as(9,(teb,cimbl),2,7). as(10,(cri,jfk),1,7). as(11,(teb,cimbl),1,7). as(12,(lga,cri),4,7). as(13,(lga,dandy),3,7). as(14,(cimbl,cri),4,7). as(0,(cimbl,ryend),4,8). as(1,(cimbl,ryend),4,8). as(2,(jfk,lga),4,8). as(3,(teb,dandy),4,8). as(4,(jfk,lga),4,8). as(5,(cri,lga),1,8). as(6,(ryend,dandy),4,8). as(7,(jfk,lga),4,8). as(8,(jfk,ryend),2,8). as(9,(cimbl,ryend),4,8). as(10,(jfk,teb),2,8). as(11,(cimbl,ryend),4,8). as(12,(cri,lga),1,8). as(13,(dandy,ryend),4,8). as(14,(cri,ryend),1,8). as(2,(lga,teb),4,9). as(3,(dandy,ryend),4,9). as(4,(lga,teb),4,9). as(5,(lga,teb),4,9). as(6,(dandy,ryend),4,9). as(7,(lga,cri),2,9). as(9,(ryend,dandy),1,9). as(10,(teb,dandy),4,9). as(12,(lga,teb),4,9). as(13,(ryend,dandy),1,9). as(14,(ryend,dandy),4,9). as(2,(teb,dandy),4,10). as(4,(teb,dandy),4,10). as(5,(teb,dandy),4,10). as(7,(cri,teb),1,10). as(9,(dandy,ryend),4,10). as(10,(dandy,ryend),4,10). as(12,(teb,dandy),4,10). as(13,(dandy,ryend),4,10). as(14,(dandy,ryend),4,10). as(7,(teb,dandy),4,11). as(12,(dandy,ryend),2,11). dl(start(0,(ryend,ryend),9),120). dl(arrival(0,(cimbl,ryend),8),120). dl(start(1,(ryend,ryend),9),131). dl(arrival(1,(cimbl,ryend),8),131). dl(start(8,(ryend,ryend),9),145). dl(arrival(8,(jfk,ryend),8),145). dl(start(11,(ryend,ryend),9),113). dl(arrival(11,(cimbl,ryend),8),113). dl(start(0,(ryend,ryend),10),120). dl(arrival(0,(ryend,ryend),9),120). dl(start(1,(ryend,ryend),10),131). dl(arrival(1,(ryend,ryend),9),131). dl(start(3,(ryend,ryend),10),137). dl(arrival(3,(dandy,ryend),9),137). dl(start(6,(ryend,ryend),10),142). dl(arrival(6,(dandy,ryend),9),142). dl(start(8,(ryend,ryend),10),145). dl(arrival(8,(ryend,ryend),9),145). dl(start(11,(ryend,ryend),10),113). dl(arrival(11,(ryend,ryend),9),113). dl(start(0,(ryend,ryend),11),120). dl(arrival(0,(ryend,ryend),10),120). dl(start(1,(ryend,ryend),11),131). dl(arrival(1,(ryend,ryend),10),131). dl(start(2,(dandy,dandy),11),166). dl(arrival(2,(teb,dandy),10),166). dl(start(3,(ryend,ryend),11),137). dl(arrival(3,(ryend,ryend),10),137). dl(start(4,(dandy,dandy),11),155). dl(arrival(4,(teb,dandy),10),155). dl(start(5,(dandy,dandy),11),173). dl(arrival(5,(teb,dandy),10),173). dl(start(6,(ryend,ryend),11),142). dl(arrival(6,(ryend,ryend),10),142). dl(start(8,(ryend,ryend),11),145). dl(arrival(8,(ryend,ryend),10),145). dl(start(9,(ryend,ryend),11),150). dl(arrival(9,(dandy,ryend),10),150). dl(start(10,(ryend,ryend),11),161). dl(arrival(10,(dandy,ryend),10),161). dl(start(11,(ryend,ryend),11),113). dl(arrival(11,(ryend,ryend),10),113). dl(start(13,(ryend,ryend),11),157). dl(arrival(13,(dandy,ryend),10),157). dl(start(14,(ryend,ryend),11),166). dl(arrival(14,(dandy,ryend),10),166). dl(start(0,(ryend,ryend),12),120). dl(arrival(0,(ryend,ryend),11),120). dl(start(1,(ryend,ryend),12),131). dl(arrival(1,(ryend,ryend),11),131). dl(start(2,(dandy,dandy),12),166). dl(arrival(2,(dandy,dandy),11),166). dl(start(3,(ryend,ryend),12),137). dl(arrival(3,(ryend,ryend),11),137). dl(start(4,(dandy,dandy),12),155). dl(arrival(4,(dandy,dandy),11),155). dl(start(5,(dandy,dandy),12),173). dl(arrival(5,(dandy,dandy),11),173). dl(start(6,(ryend,ryend),12),142). dl(arrival(6,(ryend,ryend),11),142). dl(start(7,(dandy,dandy),12),178). dl(arrival(7,(teb,dandy),11),178). dl(start(8,(ryend,ryend),12),145). dl(arrival(8,(ryend,ryend),11),145). dl(start(9,(ryend,ryend),12),150). dl(arrival(9,(ryend,ryend),11),150). dl(start(10,(ryend,ryend),12),161). dl(arrival(10,(ryend,ryend),11),161). dl(start(11,(ryend,ryend),12),113). dl(arrival(11,(ryend,ryend),11),113). dl(start(12,(ryend,ryend),12),162). dl(arrival(12,(dandy,ryend),11),162). dl(start(13,(ryend,ryend),12),157). dl(arrival(13,(ryend,ryend),11),157). dl(start(14,(ryend,ryend),12),166). dl(arrival(14,(ryend,ryend),11),166). dl(start(0,(ryend,ryend),13),120). dl(arrival(0,(ryend,ryend),12),120). dl(start(1,(ryend,ryend),13),131). dl(arrival(1,(ryend,ryend),12),131). dl(start(2,(dandy,dandy),13),166). dl(arrival(2,(dandy,dandy),12),166). dl(start(3,(ryend,ryend),13),137). dl(arrival(3,(ryend,ryend),12),137). dl(start(4,(dandy,dandy),13),155). dl(arrival(4,(dandy,dandy),12),155). dl(start(5,(dandy,dandy),13),173). dl(arrival(5,(dandy,dandy),12),173). dl(start(6,(ryend,ryend),13),142). dl(arrival(6,(ryend,ryend),12),142). dl(start(7,(dandy,dandy),13),178). dl(arrival(7,(dandy,dandy),12),178). dl(start(8,(ryend,ryend),13),145). dl(arrival(8,(ryend,ryend),12),145). dl(start(9,(ryend,ryend),13),150). dl(arrival(9,(ryend,ryend),12),150). dl(start(10,(ryend,ryend),13),161). dl(arrival(10,(ryend,ryend),12),161). dl(start(11,(ryend,ryend),13),113). dl(arrival(11,(ryend,ryend),12),113). dl(start(12,(ryend,ryend),13),162). dl(arrival(12,(ryend,ryend),12),162). dl(start(13,(ryend,ryend),13),157). dl(arrival(13,(ryend,ryend),12),157). dl(start(14,(ryend,ryend),13),166). dl(arrival(14,(ryend,ryend),12),166). dl(start(0,(jfk,dandy),2),30). dl(arrival(0,(ryend,jfk),1),11). dl(start(1,(ryend,lga),2),23). dl(arrival(1,(lga,ryend),1),9). dl(start(2,(jfk,dandy),2),30). dl(arrival(2,(teb,jfk),1),11). dl(start(3,(ryend,lga),2),23). dl(arrival(3,(lga,ryend),1),9). dl(start(4,(jfk,dandy),2),27). dl(arrival(4,(cimbl,jfk),1),8). dl(start(5,(dandy,cri),2),27). dl(arrival(5,(jfk,dandy),1),12). dl(start(6,(jfk,ryend),2),21). dl(arrival(6,(cri,jfk),1),3). dl(start(7,(jfk,teb),2),30). dl(arrival(7,(dandy,jfk),1),12). dl(start(8,(jfk,ryend),2),26). dl(arrival(8,(cimbl,jfk),1),8). dl(start(9,(dandy,cri),2),27). dl(arrival(9,(jfk,dandy),1),12). dl(start(10,(cri,dandy),2),25). dl(arrival(10,(dandy,cri),1),10). dl(start(11,(jfk,cri),2),17). dl(arrival(11,(teb,jfk),1),11). dl(start(12,(teb,cri),2),19). dl(arrival(12,(cimbl,teb),1),4). dl(start(13,(lga,ryend),2),23). dl(arrival(13,(ryend,lga),1),9). dl(start(14,(ryend,lga),2),23). dl(arrival(14,(lga,ryend),1),9). dl(start(0,(dandy,teb),3),48). dl(arrival(0,(jfk,dandy),2),42). dl(start(1,(lga,cri),3),42). dl(arrival(1,(ryend,lga),2),32). dl(start(2,(dandy,teb),3),48). dl(arrival(2,(jfk,dandy),2),42). dl(start(3,(lga,ryend),3),46). dl(arrival(3,(ryend,lga),2),32). dl(start(4,(dandy,teb),3),45). dl(arrival(4,(jfk,dandy),2),39). dl(start(5,(cri,teb),3),52). dl(arrival(5,(dandy,cri),2),37). dl(start(6,(ryend,cri),3),45). dl(arrival(6,(jfk,ryend),2),32). dl(start(7,(teb,lga),3),50). dl(arrival(7,(jfk,teb),2),41). dl(start(8,(ryend,lga),3),51). dl(arrival(8,(jfk,ryend),2),37). dl(start(9,(cri,teb),3),52). dl(arrival(9,(dandy,cri),2),37). dl(start(10,(dandy,lga),3),48). dl(arrival(10,(cri,dandy),2),35). dl(start(11,(cri,teb),3),35). dl(arrival(11,(jfk,cri),2),20). dl(start(12,(cri,dandy),3),44). dl(arrival(12,(teb,cri),2),29). dl(start(13,(ryend,cri),3),45). dl(arrival(13,(lga,ryend),2),32). dl(start(14,(lga,ryend),3),46). dl(arrival(14,(ryend,lga),2),32). dl(start(0,(teb,lga),4),61). dl(arrival(0,(dandy,teb),3),52). dl(start(1,(cri,teb),4),63). dl(arrival(1,(lga,cri),3),48). dl(start(2,(teb,jfk),4),70). dl(arrival(2,(dandy,teb),3),52). dl(start(3,(ryend,cri),4),68). dl(arrival(3,(lga,ryend),3),55). dl(start(4,(teb,ryend),4),60). dl(arrival(4,(dandy,teb),3),49). dl(start(5,(teb,ryend),4),73). dl(arrival(5,(cri,teb),3),62). dl(start(6,(cri,teb),4),68). dl(arrival(6,(ryend,cri),3),53). dl(start(7,(lga,dandy),4),68). dl(arrival(7,(teb,lga),3),55). dl(start(8,(lga,dandy),4),73). dl(arrival(8,(ryend,lga),3),60). dl(start(9,(teb,lga),4),71). dl(arrival(9,(cri,teb),3),62). dl(start(10,(lga,dandy),4),69). dl(arrival(10,(dandy,lga),3),56). dl(start(11,(teb,lga),4),54). dl(arrival(11,(cri,teb),3),45). dl(start(12,(dandy,cimbl),4),61). dl(arrival(12,(cri,dandy),3),54). dl(start(13,(cri,ryend),4),66). dl(arrival(13,(ryend,cri),3),53). dl(start(14,(ryend,cri),4),68). dl(arrival(14,(lga,ryend),3),55). dl(start(0,(lga,dandy),5),79). dl(arrival(0,(teb,lga),4),66). dl(start(1,(teb,lga),5),82). dl(arrival(1,(cri,teb),4),73). dl(start(2,(jfk,cimbl),5),94). dl(arrival(2,(teb,jfk),4),81). dl(start(3,(cri,ryend),5),89). dl(arrival(3,(ryend,cri),4),76). dl(start(4,(ryend,lga),5),81). dl(arrival(4,(teb,ryend),4),67). dl(start(5,(ryend,cri),5),93). dl(arrival(5,(teb,ryend),4),80). dl(start(6,(teb,ryend),5),89). dl(arrival(6,(cri,teb),4),78). dl(start(7,(dandy,cimbl),5),83). dl(arrival(7,(lga,dandy),4),76). dl(start(8,(dandy,cimbl),5),88). dl(arrival(8,(lga,dandy),4),81). dl(start(9,(lga,dandy),5),89). dl(arrival(9,(teb,lga),4),76). dl(start(10,(dandy,cimbl),5),84). dl(arrival(10,(lga,dandy),4),77). dl(start(11,(lga,dandy),5),72). dl(arrival(11,(teb,lga),4),59). dl(start(12,(cimbl,cri),5),74). dl(arrival(12,(dandy,cimbl),4),65). dl(start(13,(ryend,teb),5),85). dl(arrival(13,(cri,ryend),4),74). dl(start(14,(cri,ryend),5),89). dl(arrival(14,(ryend,cri),4),76). dl(start(0,(dandy,teb),6),93). dl(arrival(0,(lga,dandy),5),87). dl(start(1,(lga,cri),6),97). dl(arrival(1,(teb,lga),5),87). dl(start(2,(cimbl,cri),6),111). dl(arrival(2,(jfk,cimbl),5),102). dl(start(3,(ryend,dandy),6),103). dl(arrival(3,(cri,ryend),5),97). dl(start(4,(lga,cri),6),100). dl(arrival(4,(ryend,lga),5),90). dl(start(5,(cri,lga),6),111). dl(arrival(5,(ryend,cri),5),101). dl(start(6,(ryend,cimbl),6),104). dl(arrival(6,(teb,ryend),5),96). dl(start(7,(cimbl,cri),6),96). dl(arrival(7,(dandy,cimbl),5),87). dl(start(8,(cimbl,cri),6),101). dl(arrival(8,(dandy,cimbl),5),92). dl(start(9,(dandy,teb),6),103). dl(arrival(9,(lga,dandy),5),97). dl(start(10,(cimbl,cri),6),97). dl(arrival(10,(dandy,cimbl),5),88). dl(start(11,(dandy,teb),6),86). dl(arrival(11,(lga,dandy),5),80). dl(start(12,(cri,lga),6),90). dl(arrival(12,(cimbl,cri),5),80). dl(start(13,(teb,lga),6),101). dl(arrival(13,(ryend,teb),5),92). dl(start(14,(ryend,cimbl),6),105). dl(arrival(14,(cri,ryend),5),97). dl(start(0,(teb,cimbl),7),103). dl(arrival(0,(dandy,teb),6),97). dl(start(1,(cri,cimbl),7),112). dl(arrival(1,(lga,cri),6),103). dl(start(2,(cri,jfk),7),123). dl(arrival(2,(cimbl,cri),6),117). dl(start(3,(dandy,teb),7),113). dl(arrival(3,(ryend,dandy),6),107). dl(start(4,(cri,jfk),7),112). dl(arrival(4,(lga,cri),6),106). dl(start(5,(lga,cri),7),127). dl(arrival(5,(cri,lga),6),117). dl(start(6,(cimbl,ryend),7),117). dl(arrival(6,(ryend,cimbl),6),109). dl(start(7,(cri,jfk),7),108). dl(arrival(7,(cimbl,cri),6),102). dl(start(8,(cri,jfk),7),113). dl(arrival(8,(cimbl,cri),6),107). dl(start(9,(teb,cimbl),7),113). dl(arrival(9,(dandy,teb),6),107). dl(start(10,(cri,jfk),7),109). dl(arrival(10,(cimbl,cri),6),103). dl(start(11,(teb,cimbl),7),96). dl(arrival(11,(dandy,teb),6),90). dl(start(12,(lga,cri),7),106). dl(arrival(12,(cri,lga),6),96). dl(start(13,(lga,dandy),7),119). dl(arrival(13,(teb,lga),6),106). dl(start(14,(cimbl,cri),7),119). dl(arrival(14,(ryend,cimbl),6),110). dl(start(0,(cimbl,ryend),8),115). dl(arrival(0,(teb,cimbl),7),107). dl(start(1,(cimbl,ryend),8),126). dl(arrival(1,(cri,cimbl),7),118). dl(start(2,(jfk,lga),8),136). dl(arrival(2,(cri,jfk),7),126). dl(start(3,(teb,dandy),8),123). dl(arrival(3,(dandy,teb),7),117). dl(start(4,(jfk,lga),8),125). dl(arrival(4,(cri,jfk),7),115). dl(start(5,(cri,lga),8),143). dl(arrival(5,(lga,cri),7),133). dl(start(6,(ryend,dandy),8),128). dl(arrival(6,(cimbl,ryend),7),122). dl(start(7,(jfk,lga),8),121). dl(arrival(7,(cri,jfk),7),111). dl(start(8,(jfk,ryend),8),134). dl(arrival(8,(cri,jfk),7),116). dl(start(9,(cimbl,ryend),8),125). dl(arrival(9,(teb,cimbl),7),117). dl(start(10,(jfk,teb),8),130). dl(arrival(10,(cri,jfk),7),112). dl(start(11,(cimbl,ryend),8),108). dl(arrival(11,(teb,cimbl),7),100). dl(start(12,(cri,lga),8),122). dl(arrival(12,(lga,cri),7),112). dl(start(13,(dandy,ryend),8),133). dl(arrival(13,(lga,dandy),7),127). dl(start(14,(cri,ryend),8),138). dl(arrival(14,(cimbl,cri),7),125). dl(start(2,(lga,teb),9),151). dl(arrival(2,(jfk,lga),8),142). dl(start(3,(dandy,ryend),9),133). dl(arrival(3,(teb,dandy),8),127). dl(start(4,(lga,teb),9),140). dl(arrival(4,(jfk,lga),8),131). dl(start(5,(lga,teb),9),158). dl(arrival(5,(cri,lga),8),149). dl(start(6,(dandy,ryend),9),138). dl(arrival(6,(ryend,dandy),8),132). dl(start(7,(lga,cri),9),137). dl(arrival(7,(jfk,lga),8),127). dl(start(9,(ryend,dandy),9),136). dl(arrival(9,(cimbl,ryend),8),130). dl(start(10,(teb,dandy),9),147). dl(arrival(10,(jfk,teb),8),141). dl(start(12,(lga,teb),9),137). dl(arrival(12,(cri,lga),8),128). dl(start(13,(ryend,dandy),9),143). dl(arrival(13,(dandy,ryend),8),137). dl(start(14,(ryend,dandy),9),152). dl(arrival(14,(cri,ryend),8),146). dl(start(2,(teb,dandy),10),162). dl(arrival(2,(lga,teb),9),156). dl(start(4,(teb,dandy),10),151). dl(arrival(4,(lga,teb),9),145). dl(start(5,(teb,dandy),10),169). dl(arrival(5,(lga,teb),9),163). dl(start(7,(cri,teb),10),158). dl(arrival(7,(lga,cri),9),143). dl(start(9,(dandy,ryend),10),146). dl(arrival(9,(ryend,dandy),9),140). dl(start(10,(dandy,ryend),10),157). dl(arrival(10,(teb,dandy),9),151). dl(start(12,(teb,dandy),10),148). dl(arrival(12,(lga,teb),9),142). dl(start(13,(dandy,ryend),10),153). dl(arrival(13,(ryend,dandy),9),147). dl(start(14,(dandy,ryend),10),162). dl(arrival(14,(ryend,dandy),9),156). dl(start(7,(teb,dandy),11),174). dl(arrival(7,(cri,teb),10),168). dl(start(12,(dandy,ryend),11),158). dl(arrival(12,(teb,dandy),10),152). dl(arrival(0,(ryend,ryend),13),120). dl(arrival(1,(ryend,ryend),13),131). dl(arrival(2,(dandy,dandy),13),166). dl(arrival(3,(ryend,ryend),13),137). dl(arrival(4,(dandy,dandy),13),155). dl(arrival(5,(dandy,dandy),13),173). dl(arrival(6,(ryend,ryend),13),142). dl(arrival(7,(dandy,dandy),13),178). dl(arrival(8,(ryend,ryend),13),145). dl(arrival(9,(ryend,ryend),13),150). dl(arrival(10,(ryend,ryend),13),161). dl(arrival(11,(ryend,ryend),13),113). dl(arrival(12,(ryend,ryend),13),162). dl(arrival(13,(ryend,ryend),13),157). dl(arrival(14,(ryend,ryend),13),166). dl(start(0,(ryend,jfk),1),0). dl(start(1,(lga,ryend),1),0). dl(start(2,(teb,jfk),1),0). dl(start(3,(lga,ryend),1),0). dl(start(4,(cimbl,jfk),1),0). dl(start(5,(jfk,dandy),1),0). dl(start(6,(cri,jfk),1),0). dl(start(7,(dandy,jfk),1),0). dl(start(8,(cimbl,jfk),1),0). dl(start(9,(jfk,dandy),1),0). dl(start(10,(dandy,cri),1),0). dl(start(11,(teb,jfk),1),0). dl(start(12,(cimbl,teb),1),0). dl(start(13,(ryend,lga),1),0). dl(start(14,(lga,ryend),1),0).