no_swap(9). no_swap(15). no_swap(5). no_swap(6). no_swap(13). no_swap(1). no_swap(2). no_swap(3). no_swap(4). no_swap(8). no_swap(11). no_swap(12). no_swap(7). number_of_agent_need_switch(1). as(9,(lga,lga),0,9). as(15,(lga,lga),0,9). as(5,(lga,lga),0,10). as(6,(lga,lga),0,10). as(9,(lga,lga),0,10). as(13,(dandy,dandy),0,10). as(15,(lga,lga),0,10). as(1,(cimbl,cimbl),0,11). as(2,(dandy,dandy),0,11). as(3,(lga,lga),0,11). as(4,(dandy,dandy),0,11). as(5,(lga,lga),0,11). as(6,(lga,lga),0,11). as(8,(dandy,dandy),0,11). as(9,(lga,lga),0,11). as(11,(lga,lga),0,11). as(12,(cimbl,cimbl),0,11). as(13,(dandy,dandy),0,11). as(15,(lga,lga),0,11). as(1,(cimbl,cimbl),0,12). as(2,(dandy,dandy),0,12). as(3,(lga,lga),0,12). as(4,(dandy,dandy),0,12). as(5,(lga,lga),0,12). as(6,(lga,lga),0,12). as(7,(lga,lga),0,12). as(8,(dandy,dandy),0,12). as(9,(lga,lga),0,12). as(11,(lga,lga),0,12). as(12,(cimbl,cimbl),0,12). as(13,(dandy,dandy),0,12). as(15,(lga,lga),0,12). as(1,(cimbl,cimbl),0,13). as(2,(dandy,dandy),0,13). as(3,(lga,lga),0,13). as(4,(dandy,dandy),0,13). as(5,(lga,lga),0,13). as(6,(lga,lga),0,13). as(7,(lga,lga),0,13). as(8,(dandy,dandy),0,13). as(9,(lga,lga),0,13). as(11,(lga,lga),0,13). as(12,(cimbl,cimbl),0,13). as(13,(dandy,dandy),0,13). as(15,(lga,lga),0,13). as(1,(teb,jfk),4,1). as(2,(cimbl,dandy),1,1). as(3,(ryend,jfk),4,1). as(4,(ryend,jfk),4,1). as(5,(lga,teb),4,1). as(6,(teb,jfk),4,1). as(7,(jfk,dandy),4,1). as(8,(lga,teb),4,1). as(9,(dandy,jfk),4,1). as(11,(cimbl,ryend),2,1). as(12,(cri,ryend),4,1). as(13,(lga,ryend),3,1). as(15,(cimbl,teb),4,1). as(1,(jfk,ryend),4,2). as(2,(dandy,jfk),4,2). as(3,(jfk,teb),3,2). as(4,(jfk,cri),4,2). as(5,(teb,jfk),4,2). as(6,(jfk,dandy),4,2). as(7,(dandy,jfk),3,2). as(8,(teb,jfk),4,2). as(9,(jfk,ryend),4,2). as(11,(ryend,jfk),4,2). as(12,(ryend,jfk),4,2). as(13,(ryend,jfk),4,2). as(15,(teb,cri),4,2). as(1,(ryend,lga),4,3). as(2,(jfk,cri),1,3). as(3,(teb,cri),4,3). as(4,(cri,dandy),4,3). as(5,(jfk,ryend),1,3). as(6,(dandy,teb),4,3). as(7,(jfk,cri),1,3). as(8,(jfk,cri),4,3). as(9,(ryend,lga),4,3). as(11,(jfk,cri),1,3). as(12,(jfk,cri),4,3). as(13,(jfk,cri),4,3). as(15,(cri,teb),4,3). as(1,(lga,dandy),4,4). as(2,(cri,dandy),4,4). as(3,(cri,teb),4,4). as(4,(dandy,lga),4,4). as(5,(ryend,lga),4,4). as(6,(teb,cri),4,4). as(7,(cri,dandy),4,4). as(8,(cri,dandy),4,4). as(9,(lga,dandy),4,4). as(11,(cri,dandy),4,4). as(12,(cri,teb),4,4). as(13,(cri,teb),4,4). as(15,(teb,cri),4,4). as(1,(dandy,cimbl),4,5). as(2,(dandy,cimbl),2,5). as(3,(teb,cimbl),4,5). as(4,(lga,dandy),4,5). as(5,(lga,dandy),4,5). as(6,(cri,ryend),4,5). as(7,(dandy,cimbl),1,5). as(8,(dandy,cimbl),1,5). as(9,(dandy,ryend),4,5). as(11,(dandy,lga),4,5). as(12,(teb,ryend),4,5). as(13,(teb,cri),4,5). as(15,(cri,jfk),4,5). as(1,(cimbl,jfk),4,6). as(2,(cimbl,jfk),4,6). as(3,(cimbl,jfk),4,6). as(4,(dandy,teb),4,6). as(5,(dandy,teb),1,6). as(6,(ryend,cri),4,6). as(7,(cimbl,jfk),4,6). as(8,(cimbl,jfk),4,6). as(9,(ryend,cri),4,6). as(11,(lga,cri),4,6). as(12,(ryend,cri),4,6). as(13,(cri,lga),4,6). as(15,(jfk,cimbl),4,6). as(1,(jfk,lga),4,7). as(2,(jfk,lga),4,7). as(3,(jfk,cimbl),4,7). as(4,(teb,lga),4,7). as(5,(teb,ryend),2,7). as(6,(cri,cimbl),4,7). as(7,(jfk,lga),4,7). as(8,(jfk,lga),4,7). as(9,(cri,cimbl),4,7). as(11,(cri,cimbl),4,7). as(12,(cri,lga),4,7). as(13,(lga,jfk),4,7). as(15,(cimbl,jfk),4,7). as(1,(lga,cimbl),4,8). as(2,(lga,cimbl),4,8). as(3,(cimbl,lga),4,8). as(4,(lga,cimbl),4,8). as(5,(ryend,teb),4,8). as(6,(cimbl,teb),4,8). as(7,(lga,cimbl),4,8). as(8,(lga,cimbl),4,8). as(9,(cimbl,lga),4,8). as(11,(cimbl,lga),4,8). as(12,(lga,cimbl),4,8). as(13,(jfk,lga),4,8). as(15,(jfk,lga),4,8). as(1,(cimbl,teb),4,9). as(2,(cimbl,teb),1,9). as(3,(lga,cimbl),2,9). as(4,(cimbl,teb),1,9). as(5,(teb,lga),4,9). as(6,(teb,lga),4,9). as(7,(cimbl,cri),2,9). as(8,(cimbl,teb),1,9). as(11,(lga,teb),1,9). as(12,(cimbl,teb),4,9). as(13,(lga,dandy),1,9). as(1,(teb,cimbl),4,10). as(2,(teb,dandy),4,10). as(3,(cimbl,lga),2,10). as(4,(teb,dandy),4,10). as(7,(cri,jfk),4,10). as(8,(teb,dandy),4,10). as(11,(teb,lga),3,10). as(12,(teb,cimbl),4,10). as(7,(jfk,lga),4,11). mixed_best(0,10,jfk,2,5,157,172). no_swap(14). as(14,(dandy,dandy),0,8). as(14,(dandy,dandy),0,9). as(14,(dandy,dandy),0,10). as(14,(dandy,dandy),0,11). as(14,(dandy,dandy),0,12). as(14,(dandy,dandy),0,13). as(0,(jfk,dandy),4,1). as(10,(cimbl,teb),4,1). as(14,(cimbl,ryend),1,1). as(0,(dandy,jfk),4,2). as(10,(teb,jfk),4,2). as(14,(ryend,jfk),4,2). as(10,(jfk,cri),1,3). as(14,(jfk,cri),1,3). as(10,(cri,teb),4,4). as(14,(cri,teb),4,4). as(10,(teb,jfk),1,5). as(14,(teb,cimbl),4,5). as(14,(cimbl,jfk),4,6). as(14,(jfk,dandy),2,7). as(0,(cimbl,cimbl),0,10). as(0,(lga,teb),1,6). as(0,(teb,cri),2,7). as(0,(cri,jfk),4,8). as(0,(jfk,cimbl),2,9). as(0,(jfk,cimbl),4,3). as(0,(cimbl,teb),4,4). as(0,(teb,lga),4,5). as(10,(dandy,dandy),0,10). as(10,(dandy,dandy),0,11). as(10,(dandy,dandy),0,12). as(10,(dandy,dandy),0,13). as(10,(dandy,dandy),0,14). as(10,(dandy,dandy),0,15). as(10,(dandy,dandy),0,16). as(10,(lga,dandy),4,9). as(10,(jfk,cri),1,6). as(10,(cri,dandy),4,7). as(10,(dandy,lga),3,8). dl(start(9,(lga,lga),9),141). dl(arrival(9,(cimbl,lga),8),141). dl(start(15,(lga,lga),9),146). dl(arrival(15,(jfk,lga),8),146). dl(start(5,(lga,lga),10),167). dl(arrival(5,(teb,lga),9),167). dl(start(6,(lga,lga),10),158). dl(arrival(6,(teb,lga),9),158). dl(start(9,(lga,lga),10),141). dl(arrival(9,(lga,lga),9),141). dl(start(13,(dandy,dandy),10),166). dl(arrival(13,(lga,dandy),9),166). dl(start(15,(lga,lga),10),146). dl(arrival(15,(lga,lga),9),146). dl(start(1,(cimbl,cimbl),11),162). dl(arrival(1,(teb,cimbl),10),162). dl(start(2,(dandy,dandy),11),147). dl(arrival(2,(teb,dandy),10),147). dl(start(3,(lga,lga),11),172). dl(arrival(3,(cimbl,lga),10),172). dl(start(4,(dandy,dandy),11),141). dl(arrival(4,(teb,dandy),10),141). dl(start(5,(lga,lga),11),167). dl(arrival(5,(lga,lga),10),167). dl(start(6,(lga,lga),11),158). dl(arrival(6,(lga,lga),10),158). dl(start(8,(dandy,dandy),11),146). dl(arrival(8,(teb,dandy),10),146). dl(start(9,(lga,lga),11),141). dl(arrival(9,(lga,lga),10),141). dl(start(11,(lga,lga),11),158). dl(arrival(11,(teb,lga),10),158). dl(start(12,(cimbl,cimbl),11),156). dl(arrival(12,(teb,cimbl),10),156). dl(start(13,(dandy,dandy),11),166). dl(arrival(13,(dandy,dandy),10),166). dl(start(15,(lga,lga),11),146). dl(arrival(15,(lga,lga),10),146). dl(start(1,(cimbl,cimbl),12),162). dl(arrival(1,(cimbl,cimbl),11),162). dl(start(2,(dandy,dandy),12),147). dl(arrival(2,(dandy,dandy),11),147). dl(start(3,(lga,lga),12),172). dl(arrival(3,(lga,lga),11),172). dl(start(4,(dandy,dandy),12),141). dl(arrival(4,(dandy,dandy),11),141). dl(start(5,(lga,lga),12),167). dl(arrival(5,(lga,lga),11),167). dl(start(6,(lga,lga),12),158). dl(arrival(6,(lga,lga),11),158). dl(start(7,(lga,lga),12),175). dl(arrival(7,(jfk,lga),11),175). dl(start(8,(dandy,dandy),12),146). dl(arrival(8,(dandy,dandy),11),146). dl(start(9,(lga,lga),12),141). dl(arrival(9,(lga,lga),11),141). dl(start(11,(lga,lga),12),158). dl(arrival(11,(lga,lga),11),158). dl(start(12,(cimbl,cimbl),12),156). dl(arrival(12,(cimbl,cimbl),11),156). dl(start(13,(dandy,dandy),12),166). dl(arrival(13,(dandy,dandy),11),166). dl(start(15,(lga,lga),12),146). dl(arrival(15,(lga,lga),11),146). dl(start(1,(cimbl,cimbl),13),162). dl(arrival(1,(cimbl,cimbl),12),162). dl(start(2,(dandy,dandy),13),147). dl(arrival(2,(dandy,dandy),12),147). dl(start(3,(lga,lga),13),172). dl(arrival(3,(lga,lga),12),172). dl(start(4,(dandy,dandy),13),141). dl(arrival(4,(dandy,dandy),12),141). dl(start(5,(lga,lga),13),167). dl(arrival(5,(lga,lga),12),167). dl(start(6,(lga,lga),13),158). dl(arrival(6,(lga,lga),12),158). dl(start(7,(lga,lga),13),175). dl(arrival(7,(lga,lga),12),175). dl(start(8,(dandy,dandy),13),146). dl(arrival(8,(dandy,dandy),12),146). dl(start(9,(lga,lga),13),141). dl(arrival(9,(lga,lga),12),141). dl(start(11,(lga,lga),13),158). dl(arrival(11,(lga,lga),12),158). dl(start(12,(cimbl,cimbl),13),156). dl(arrival(12,(cimbl,cimbl),12),156). dl(start(13,(dandy,dandy),13),166). dl(arrival(13,(dandy,dandy),12),166). dl(start(15,(lga,lga),13),146). dl(arrival(15,(lga,lga),12),146). dl(start(1,(jfk,ryend),2),29). dl(arrival(1,(teb,jfk),1),11). dl(start(2,(dandy,jfk),2),23). dl(arrival(2,(cimbl,dandy),1),4). dl(start(3,(jfk,teb),2),29). dl(arrival(3,(ryend,jfk),1),11). dl(start(4,(jfk,cri),2),17). dl(arrival(4,(ryend,jfk),1),11). dl(start(5,(teb,jfk),2),23). dl(arrival(5,(lga,teb),1),5). dl(start(6,(jfk,dandy),2),30). dl(arrival(6,(teb,jfk),1),11). dl(start(7,(dandy,jfk),2),31). dl(arrival(7,(jfk,dandy),1),12). dl(start(8,(teb,jfk),2),23). dl(arrival(8,(lga,teb),1),5). dl(start(9,(jfk,ryend),2),30). dl(arrival(9,(dandy,jfk),1),12). dl(start(11,(ryend,jfk),2),23). dl(arrival(11,(cimbl,ryend),1),5). dl(start(12,(ryend,jfk),2),26). dl(arrival(12,(cri,ryend),1),8). dl(start(13,(ryend,jfk),2),27). dl(arrival(13,(lga,ryend),1),9). dl(start(15,(teb,cri),2),19). dl(arrival(15,(cimbl,teb),1),4). dl(start(1,(ryend,lga),3),54). dl(arrival(1,(jfk,ryend),2),40). dl(start(2,(jfk,cri),3),41). dl(arrival(2,(dandy,jfk),2),35). dl(start(3,(teb,cri),3),55). dl(arrival(3,(jfk,teb),2),40). dl(start(4,(cri,dandy),3),35). dl(arrival(4,(jfk,cri),2),20). dl(start(5,(jfk,ryend),3),52). dl(arrival(5,(teb,jfk),2),34). dl(start(6,(dandy,teb),3),48). dl(arrival(6,(jfk,dandy),2),42). dl(start(7,(jfk,cri),3),49). dl(arrival(7,(dandy,jfk),2),43). dl(start(8,(jfk,cri),3),40). dl(arrival(8,(teb,jfk),2),34). dl(start(9,(ryend,lga),3),55). dl(arrival(9,(jfk,ryend),2),41). dl(start(11,(jfk,cri),3),40). dl(arrival(11,(ryend,jfk),2),34). dl(start(12,(jfk,cri),3),43). dl(arrival(12,(ryend,jfk),2),37). dl(start(13,(jfk,cri),3),44). dl(arrival(13,(ryend,jfk),2),38). dl(start(15,(cri,teb),3),44). dl(arrival(15,(teb,cri),2),29). dl(start(1,(lga,dandy),4),76). dl(arrival(1,(ryend,lga),3),63). dl(start(2,(cri,dandy),4),59). dl(arrival(2,(jfk,cri),3),44). dl(start(3,(cri,teb),4),80). dl(arrival(3,(teb,cri),3),65). dl(start(4,(dandy,lga),4),58). dl(arrival(4,(cri,dandy),3),45). dl(start(5,(ryend,lga),4),77). dl(arrival(5,(jfk,ryend),3),63). dl(start(6,(teb,cri),4),67). dl(arrival(6,(dandy,teb),3),52). dl(start(7,(cri,dandy),4),67). dl(arrival(7,(jfk,cri),3),52). dl(start(8,(cri,dandy),4),58). dl(arrival(8,(jfk,cri),3),43). dl(start(9,(lga,dandy),4),77). dl(arrival(9,(ryend,lga),3),64). dl(start(11,(cri,dandy),4),58). dl(arrival(11,(jfk,cri),3),43). dl(start(12,(cri,teb),4),61). dl(arrival(12,(jfk,cri),3),46). dl(start(13,(cri,teb),4),62). dl(arrival(13,(jfk,cri),3),47). dl(start(15,(teb,cri),4),69). dl(arrival(15,(cri,teb),3),54). dl(start(1,(dandy,cimbl),5),91). dl(arrival(1,(lga,dandy),4),84). dl(start(2,(dandy,cimbl),5),76). dl(arrival(2,(cri,dandy),4),69). dl(start(3,(teb,cimbl),5),96). dl(arrival(3,(cri,teb),4),90). dl(start(4,(lga,dandy),5),79). dl(arrival(4,(dandy,lga),4),66). dl(start(5,(lga,dandy),5),99). dl(arrival(5,(ryend,lga),4),86). dl(start(6,(cri,ryend),5),90). dl(arrival(6,(teb,cri),4),77). dl(start(7,(dandy,cimbl),5),84). dl(arrival(7,(cri,dandy),4),77). dl(start(8,(dandy,cimbl),5),75). dl(arrival(8,(cri,dandy),4),68). dl(start(9,(dandy,ryend),5),91). dl(arrival(9,(lga,dandy),4),85). dl(start(11,(dandy,lga),5),81). dl(arrival(11,(cri,dandy),4),68). dl(start(12,(teb,ryend),5),82). dl(arrival(12,(cri,teb),4),71). dl(start(13,(teb,cri),5),87). dl(arrival(13,(cri,teb),4),72). dl(start(15,(cri,jfk),5),85). dl(arrival(15,(teb,cri),4),79). dl(start(1,(cimbl,jfk),6),108). dl(arrival(1,(dandy,cimbl),5),95). dl(start(2,(cimbl,jfk),6),93). dl(arrival(2,(dandy,cimbl),5),80). dl(start(3,(cimbl,jfk),6),113). dl(arrival(3,(teb,cimbl),5),100). dl(start(4,(dandy,teb),6),93). dl(arrival(4,(lga,dandy),5),87). dl(start(5,(dandy,teb),6),113). dl(arrival(5,(lga,dandy),5),107). dl(start(6,(ryend,cri),6),111). dl(arrival(6,(cri,ryend),5),98). dl(start(7,(cimbl,jfk),6),101). dl(arrival(7,(dandy,cimbl),5),88). dl(start(8,(cimbl,jfk),6),92). dl(arrival(8,(dandy,cimbl),5),79). dl(start(9,(ryend,cri),6),108). dl(arrival(9,(dandy,ryend),5),95). dl(start(11,(lga,cri),6),99). dl(arrival(11,(dandy,lga),5),89). dl(start(12,(ryend,cri),6),102). dl(arrival(12,(teb,ryend),5),89). dl(start(13,(cri,lga),6),107). dl(arrival(13,(teb,cri),5),97). dl(start(15,(jfk,cimbl),6),101). dl(arrival(15,(cri,jfk),5),88). dl(start(1,(jfk,lga),7),126). dl(arrival(1,(cimbl,jfk),6),116). dl(start(2,(jfk,lga),7),111). dl(arrival(2,(cimbl,jfk),6),101). dl(start(3,(jfk,cimbl),7),134). dl(arrival(3,(cimbl,jfk),6),121). dl(start(4,(teb,lga),7),106). dl(arrival(4,(dandy,teb),6),97). dl(start(5,(teb,ryend),7),128). dl(arrival(5,(dandy,teb),6),117). dl(start(6,(cri,cimbl),7),128). dl(arrival(6,(ryend,cri),6),119). dl(start(7,(jfk,lga),7),119). dl(arrival(7,(cimbl,jfk),6),109). dl(start(8,(jfk,lga),7),110). dl(arrival(8,(cimbl,jfk),6),100). dl(start(9,(cri,cimbl),7),125). dl(arrival(9,(ryend,cri),6),116). dl(start(11,(cri,cimbl),7),114). dl(arrival(11,(lga,cri),6),105). dl(start(12,(cri,lga),7),120). dl(arrival(12,(ryend,cri),6),110). dl(start(13,(lga,jfk),7),123). dl(arrival(13,(cri,lga),6),113). dl(start(15,(cimbl,jfk),7),122). dl(arrival(15,(jfk,cimbl),6),109). dl(start(1,(lga,cimbl),8),138). dl(arrival(1,(jfk,lga),7),132). dl(start(2,(lga,cimbl),8),123). dl(arrival(2,(jfk,lga),7),117). dl(start(3,(cimbl,lga),8),148). dl(arrival(3,(jfk,cimbl),7),142). dl(start(4,(lga,cimbl),8),117). dl(arrival(4,(teb,lga),7),111). dl(start(5,(ryend,teb),8),146). dl(arrival(5,(teb,ryend),7),135). dl(start(6,(cimbl,teb),8),140). dl(arrival(6,(cri,cimbl),7),134). dl(start(7,(lga,cimbl),8),131). dl(arrival(7,(jfk,lga),7),125). dl(start(8,(lga,cimbl),8),122). dl(arrival(8,(jfk,lga),7),116). dl(start(9,(cimbl,lga),8),137). dl(arrival(9,(cri,cimbl),7),131). dl(start(11,(cimbl,lga),8),126). dl(arrival(11,(cri,cimbl),7),120). dl(start(12,(lga,cimbl),8),132). dl(arrival(12,(cri,lga),7),126). dl(start(13,(jfk,lga),8),139). dl(arrival(13,(lga,jfk),7),129). dl(start(15,(jfk,lga),8),140). dl(arrival(15,(cimbl,jfk),7),130). dl(start(1,(cimbl,teb),9),148). dl(arrival(1,(lga,cimbl),8),142). dl(start(2,(cimbl,teb),9),133). dl(arrival(2,(lga,cimbl),8),127). dl(start(3,(lga,cimbl),9),158). dl(arrival(3,(cimbl,lga),8),152). dl(start(4,(cimbl,teb),9),127). dl(arrival(4,(lga,cimbl),8),121). dl(start(5,(teb,lga),9),162). dl(arrival(5,(ryend,teb),8),153). dl(start(6,(teb,lga),9),153). dl(arrival(6,(cimbl,teb),8),144). dl(start(7,(cimbl,cri),9),144). dl(arrival(7,(lga,cimbl),8),135). dl(start(8,(cimbl,teb),9),132). dl(arrival(8,(lga,cimbl),8),126). dl(start(11,(lga,teb),9),139). dl(arrival(11,(cimbl,lga),8),130). dl(start(12,(cimbl,teb),9),142). dl(arrival(12,(lga,cimbl),8),136). dl(start(13,(lga,dandy),9),158). dl(arrival(13,(jfk,lga),8),145). dl(start(1,(teb,cimbl),10),158). dl(arrival(1,(cimbl,teb),9),152). dl(start(2,(teb,dandy),10),143). dl(arrival(2,(cimbl,teb),9),137). dl(start(3,(cimbl,lga),10),168). dl(arrival(3,(lga,cimbl),9),162). dl(start(4,(teb,dandy),10),137). dl(arrival(4,(cimbl,teb),9),131). dl(start(7,(cri,jfk),10),156). dl(arrival(7,(cimbl,cri),9),150). dl(start(8,(teb,dandy),10),142). dl(arrival(8,(cimbl,teb),9),136). dl(start(11,(teb,lga),10),153). dl(arrival(11,(lga,teb),9),144). dl(start(12,(teb,cimbl),10),152). dl(arrival(12,(cimbl,teb),9),146). dl(start(7,(jfk,lga),11),169). dl(arrival(7,(cri,jfk),10),159). dl(start(14,(dandy,dandy),8),130). dl(arrival(14,(jfk,dandy),7),130). dl(start(14,(dandy,dandy),9),130). dl(arrival(14,(dandy,dandy),8),130). dl(start(14,(dandy,dandy),10),130). dl(arrival(14,(dandy,dandy),9),130). dl(start(14,(dandy,dandy),11),130). dl(arrival(14,(dandy,dandy),10),130). dl(start(14,(dandy,dandy),12),130). dl(arrival(14,(dandy,dandy),11),130). dl(start(14,(dandy,dandy),13),130). dl(arrival(14,(dandy,dandy),12),130). dl(start(0,(dandy,jfk),2),31). dl(arrival(0,(jfk,dandy),1),12). dl(start(10,(teb,jfk),2),22). dl(arrival(10,(cimbl,teb),1),4). dl(start(14,(ryend,jfk),2),23). dl(arrival(14,(cimbl,ryend),1),5). dl(start(10,(jfk,cri),3),39). dl(arrival(10,(teb,jfk),2),33). dl(start(14,(jfk,cri),3),40). dl(arrival(14,(ryend,jfk),2),34). dl(start(10,(cri,teb),4),57). dl(arrival(10,(jfk,cri),3),42). dl(start(14,(cri,teb),4),58). dl(arrival(14,(jfk,cri),3),43). dl(start(10,(teb,jfk),5),85). dl(arrival(10,(cri,teb),4),67). dl(start(14,(teb,cimbl),5),74). dl(arrival(14,(cri,teb),4),68). dl(start(14,(cimbl,jfk),6),91). dl(arrival(14,(teb,cimbl),5),78). dl(start(14,(jfk,dandy),7),118). dl(arrival(14,(cimbl,jfk),6),99). dl(start(0,(cimbl,cimbl),10),157). dl(arrival(0,(jfk,cimbl),9),157). dl(start(0,(lga,teb),6),97). dl(arrival(0,(teb,lga),5),88). dl(start(0,(teb,cri),7),117). dl(arrival(0,(lga,teb),6),102). dl(start(0,(cri,jfk),8),133). dl(arrival(0,(teb,cri),7),127). dl(start(0,(jfk,cimbl),9),149). dl(arrival(0,(cri,jfk),8),136). dl(start(0,(jfk,cimbl),3),56). dl(arrival(0,(dandy,jfk),2),43). dl(start(0,(cimbl,teb),4),70). dl(arrival(0,(jfk,cimbl),3),64). dl(start(0,(teb,lga),5),83). dl(arrival(0,(cimbl,teb),4),74). dl(start(10,(dandy,dandy),10),172). dl(arrival(10,(lga,dandy),9),172). dl(start(10,(dandy,dandy),11),172). dl(arrival(10,(dandy,dandy),10),172). dl(start(10,(dandy,dandy),12),172). dl(arrival(10,(dandy,dandy),11),172). dl(start(10,(dandy,dandy),13),172). dl(arrival(10,(dandy,dandy),12),172). dl(start(10,(dandy,dandy),14),172). dl(arrival(10,(dandy,dandy),13),172). dl(start(10,(dandy,dandy),15),172). dl(arrival(10,(dandy,dandy),14),172). dl(start(10,(dandy,dandy),16),172). dl(arrival(10,(dandy,dandy),15),172). dl(start(10,(lga,dandy),9),164). dl(arrival(10,(dandy,lga),8),151). dl(start(10,(jfk,cri),6),102). dl(arrival(10,(teb,jfk),5),96). dl(start(10,(cri,dandy),7),120). dl(arrival(10,(jfk,cri),6),105). dl(start(10,(dandy,lga),8),143). dl(arrival(10,(cri,dandy),7),130). dl(arrival(1,(cimbl,cimbl),13),162). dl(arrival(2,(dandy,dandy),13),147). dl(arrival(3,(lga,lga),13),172). dl(arrival(4,(dandy,dandy),13),141). dl(arrival(5,(lga,lga),13),167). dl(arrival(6,(lga,lga),13),158). dl(arrival(7,(lga,lga),13),175). dl(arrival(8,(dandy,dandy),13),146). dl(arrival(9,(lga,lga),13),141). dl(arrival(11,(lga,lga),13),158). dl(arrival(12,(cimbl,cimbl),13),156). dl(arrival(13,(dandy,dandy),13),166). dl(arrival(15,(lga,lga),13),146). dl(start(1,(teb,jfk),1),0). dl(start(2,(cimbl,dandy),1),0). dl(start(3,(ryend,jfk),1),0). dl(start(4,(ryend,jfk),1),0). dl(start(5,(lga,teb),1),0). dl(start(6,(teb,jfk),1),0). dl(start(7,(jfk,dandy),1),0). dl(start(8,(lga,teb),1),0). dl(start(9,(dandy,jfk),1),0). dl(start(11,(cimbl,ryend),1),0). dl(start(12,(cri,ryend),1),0). dl(start(13,(lga,ryend),1),0). dl(start(15,(cimbl,teb),1),0). dl(arrival(14,(dandy,dandy),13),130). dl(start(0,(jfk,dandy),1),0). dl(start(10,(cimbl,teb),1),0). dl(start(14,(cimbl,ryend),1),0). dl(arrival(0,(cimbl,cimbl),10),157). dl(arrival(10,(dandy,dandy),16),172).