no_swap(7). number_of_agent_need_switch(3). as(7,(teb,teb),0,10). as(7,(teb,teb),0,11). as(7,(teb,teb),0,12). as(7,(teb,teb),0,13). as(7,(cimbl,jfk),1,1). as(7,(jfk,ryend),4,2). as(7,(ryend,lga),4,3). as(7,(lga,ryend),4,4). as(7,(ryend,cimbl),4,5). as(7,(cimbl,lga),1,6). as(7,(lga,cri),4,7). as(7,(cri,cimbl),1,8). as(7,(cimbl,teb),4,9). mixed_best(10,6,cri,2,3,167,165). mixed_best(0,17,ryend,8,9,152,176). mixed_best(8,15,dandy,9,9,168,178). no_swap(3). no_swap(9). no_swap(2). no_swap(4). no_swap(11). no_swap(13). no_swap(14). no_swap(1). no_swap(5). no_swap(16). no_swap(12). as(3,(cri,cri),0,9). as(9,(cri,cri),0,9). as(2,(cri,cri),0,10). as(3,(cri,cri),0,10). as(4,(cimbl,cimbl),0,10). as(9,(cri,cri),0,10). as(11,(cimbl,cimbl),0,10). as(13,(teb,teb),0,10). as(14,(cimbl,cimbl),0,10). as(0,(cimbl,cimbl),0,11). as(1,(cimbl,cimbl),0,11). as(2,(cri,cri),0,11). as(3,(cri,cri),0,11). as(4,(cimbl,cimbl),0,11). as(5,(cimbl,cimbl),0,11). as(9,(cri,cri),0,11). as(11,(cimbl,cimbl),0,11). as(13,(teb,teb),0,11). as(14,(cimbl,cimbl),0,11). as(16,(dandy,dandy),0,11). as(0,(cimbl,cimbl),0,12). as(1,(cimbl,cimbl),0,12). as(2,(cri,cri),0,12). as(3,(cri,cri),0,12). as(4,(cimbl,cimbl),0,12). as(5,(cimbl,cimbl),0,12). as(9,(cri,cri),0,12). as(11,(cimbl,cimbl),0,12). as(12,(dandy,dandy),0,12). as(13,(teb,teb),0,12). as(14,(cimbl,cimbl),0,12). as(16,(dandy,dandy),0,12). as(17,(cimbl,cimbl),0,12). as(1,(cimbl,cimbl),0,13). as(2,(cri,cri),0,13). as(3,(cri,cri),0,13). as(4,(cimbl,cimbl),0,13). as(5,(cimbl,cimbl),0,13). as(9,(cri,cri),0,13). as(11,(cimbl,cimbl),0,13). as(12,(dandy,dandy),0,13). as(13,(teb,teb),0,13). as(14,(cimbl,cimbl),0,13). as(16,(dandy,dandy),0,13). as(17,(cimbl,cimbl),0,13). as(0,(jfk,dandy),4,1). as(1,(teb,jfk),4,1). as(2,(cimbl,jfk),3,1). as(3,(dandy,jfk),4,1). as(4,(lga,jfk),4,1). as(5,(ryend,jfk),4,1). as(6,(teb,jfk),4,1). as(8,(cimbl,jfk),1,1). as(9,(dandy,jfk),4,1). as(10,(jfk,dandy),4,1). as(11,(ryend,jfk),4,1). as(12,(cri,teb),4,1). as(13,(ryend,jfk),4,1). as(14,(cri,teb),4,1). as(15,(jfk,dandy),4,1). as(16,(cri,teb),4,1). as(17,(ryend,lga),4,1). as(0,(dandy,jfk),4,2). as(1,(jfk,dandy),4,2). as(2,(jfk,dandy),4,2). as(3,(jfk,dandy),4,2). as(4,(jfk,dandy),4,2). as(5,(jfk,teb),4,2). as(6,(jfk,teb),4,2). as(8,(jfk,ryend),4,2). as(9,(jfk,ryend),4,2). as(10,(dandy,cri),4,2). as(11,(jfk,ryend),4,2). as(12,(teb,jfk),4,2). as(13,(jfk,ryend),4,2). as(14,(teb,cri),4,2). as(15,(dandy,cri),4,2). as(16,(teb,cri),4,2). as(17,(lga,ryend),4,2). as(0,(jfk,cri),4,3). as(1,(dandy,lga),3,3). as(2,(dandy,cri),4,3). as(3,(dandy,cri),4,3). as(4,(dandy,lga),1,3). as(5,(teb,cri),4,3). as(6,(teb,cri),4,3). as(8,(ryend,lga),4,3). as(9,(ryend,cri),4,3). as(11,(ryend,cri),4,3). as(12,(jfk,cri),4,3). as(13,(ryend,cri),4,3). as(14,(cri,dandy),4,3). as(15,(cri,teb),4,3). as(16,(cri,teb),4,3). as(17,(ryend,lga),4,3). as(0,(cri,dandy),4,4). as(1,(lga,ryend),4,4). as(2,(cri,ryend),4,4). as(3,(cri,ryend),4,4). as(4,(lga,ryend),4,4). as(5,(cri,ryend),4,4). as(8,(lga,ryend),4,4). as(9,(cri,ryend),4,4). as(11,(cri,ryend),4,4). as(12,(cri,dandy),4,4). as(13,(cri,ryend),4,4). as(14,(dandy,teb),3,4). as(15,(teb,cri),3,4). as(16,(teb,ryend),4,4). as(17,(lga,jfk),4,4). as(0,(dandy,cimbl),4,5). as(1,(ryend,cimbl),4,5). as(2,(ryend,cri),1,5). as(3,(ryend,cri),1,5). as(4,(ryend,teb),4,5). as(5,(ryend,cimbl),4,5). as(8,(ryend,cimbl),4,5). as(9,(ryend,lga),1,5). as(11,(ryend,cri),1,5). as(12,(dandy,cimbl),4,5). as(13,(ryend,cimbl),4,5). as(14,(teb,ryend),4,5). as(15,(cri,lga),4,5). as(16,(ryend,cri),4,5). as(17,(jfk,cimbl),4,5). as(0,(cimbl,cri),4,6). as(1,(cimbl,cri),4,6). as(2,(cri,lga),4,6). as(3,(cri,lga),4,6). as(4,(teb,lga),4,6). as(5,(cimbl,cri),4,6). as(8,(cimbl,cri),2,6). as(9,(lga,cri),4,6). as(11,(cri,lga),4,6). as(12,(cimbl,cri),4,6). as(13,(cimbl,cri),4,6). as(14,(ryend,cimbl),4,6). as(15,(lga,cri),4,6). as(16,(cri,lga),4,6). as(17,(cimbl,cri),4,6). as(0,(cri,cimbl),4,7). as(1,(cri,cimbl),4,7). as(2,(lga,cri),4,7). as(3,(lga,jfk),4,7). as(4,(lga,teb),4,7). as(5,(cri,cimbl),4,7). as(8,(cri,lga),4,7). as(9,(cri,jfk),4,7). as(11,(lga,teb),4,7). as(12,(cri,ryend),2,7). as(13,(cri,lga),4,7). as(14,(cimbl,teb),4,7). as(15,(cri,jfk),4,7). as(16,(lga,dandy),3,7). as(17,(cri,jfk),4,7). as(0,(cimbl,ryend),3,8). as(1,(cimbl,teb),4,8). as(2,(cri,jfk),1,8). as(3,(jfk,cri),4,8). as(4,(teb,lga),4,8). as(5,(cimbl,teb),4,8). as(8,(lga,cimbl),4,8). as(9,(jfk,cri),4,8). as(11,(teb,lga),4,8). as(12,(ryend,teb),3,8). as(13,(lga,cimbl),4,8). as(14,(teb,lga),4,8). as(15,(jfk,ryend),2,8). as(16,(dandy,cimbl),4,8). as(17,(jfk,teb),1,8). as(1,(teb,lga),3,9). as(2,(jfk,cri),4,9). as(4,(lga,cimbl),4,9). as(5,(teb,dandy),4,9). as(8,(cimbl,dandy),3,9). as(11,(lga,cimbl),4,9). as(12,(teb,dandy),4,9). as(13,(cimbl,teb),3,9). as(14,(lga,cimbl),4,9). as(15,(ryend,dandy),4,9). as(16,(cimbl,teb),4,9). as(17,(teb,ryend),3,9). as(1,(lga,cimbl),4,10). as(5,(dandy,cimbl),4,10). as(12,(dandy,ryend),1,10). as(16,(teb,dandy),4,10). as(12,(ryend,dandy),4,11). as(10,(dandy,dandy),0,10). as(10,(dandy,dandy),0,11). as(10,(dandy,dandy),0,12). as(10,(cri,ryend),4,3). as(10,(ryend,teb),4,4). as(10,(teb,jfk),2,5). as(10,(jfk,dandy),2,6). as(10,(dandy,cimbl),4,7). as(10,(cimbl,teb),4,8). as(10,(teb,dandy),4,9). as(0,(ryend,dandy),4,9). as(8,(dandy,dandy),0,12). as(8,(dandy,dandy),0,13). as(8,(dandy,ryend),4,10). as(8,(ryend,dandy),4,11). as(0,(dandy,cimbl),2,10). as(6,(cri,cri),0,10). as(6,(cri,cri),0,11). as(6,(cri,cri),0,12). as(6,(cri,cri),0,13). as(6,(cri,cri),0,14). as(6,(cri,teb),4,4). as(6,(teb,ryend),4,5). as(6,(ryend,lga),1,6). as(6,(lga,cri),4,7). as(6,(cri,jfk),4,8). as(6,(jfk,cri),4,9). as(15,(cimbl,cimbl),0,11). as(15,(cimbl,cimbl),0,12). as(15,(cimbl,cimbl),0,13). as(15,(dandy,cimbl),4,10). as(17,(cimbl,cimbl),0,11). as(17,(cimbl,cimbl),0,14). as(17,(ryend,cimbl),3,10). dl(start(7,(teb,teb),10),147). dl(arrival(7,(cimbl,teb),9),147). dl(start(7,(teb,teb),11),147). dl(arrival(7,(teb,teb),10),147). dl(start(7,(teb,teb),12),147). dl(arrival(7,(teb,teb),11),147). dl(start(7,(teb,teb),13),147). dl(arrival(7,(teb,teb),12),147). dl(start(7,(jfk,ryend),2),26). dl(arrival(7,(cimbl,jfk),1),8). dl(start(7,(ryend,lga),3),51). dl(arrival(7,(jfk,ryend),2),37). dl(start(7,(lga,ryend),4),74). dl(arrival(7,(ryend,lga),3),60). dl(start(7,(ryend,cimbl),5),91). dl(arrival(7,(lga,ryend),4),83). dl(start(7,(cimbl,lga),6),102). dl(arrival(7,(ryend,cimbl),5),96). dl(start(7,(lga,cri),7),116). dl(arrival(7,(cimbl,lga),6),106). dl(start(7,(cri,cimbl),8),131). dl(arrival(7,(lga,cri),7),122). dl(start(7,(cimbl,teb),9),143). dl(arrival(7,(cri,cimbl),8),137). dl(start(3,(cri,cri),9),151). dl(arrival(3,(jfk,cri),8),151). dl(start(9,(cri,cri),9),140). dl(arrival(9,(jfk,cri),8),140). dl(start(2,(cri,cri),10),156). dl(arrival(2,(jfk,cri),9),156). dl(start(3,(cri,cri),10),151). dl(arrival(3,(cri,cri),9),151). dl(start(4,(cimbl,cimbl),10),151). dl(arrival(4,(lga,cimbl),9),151). dl(start(9,(cri,cri),10),140). dl(arrival(9,(cri,cri),9),140). dl(start(11,(cimbl,cimbl),10),157). dl(arrival(11,(lga,cimbl),9),157). dl(start(13,(teb,teb),10),146). dl(arrival(13,(cimbl,teb),9),146). dl(start(14,(cimbl,cimbl),10),135). dl(arrival(14,(lga,cimbl),9),135). dl(start(0,(cimbl,cimbl),11),152). dl(arrival(0,(dandy,cimbl),10),152). dl(start(1,(cimbl,cimbl),11),163). dl(arrival(1,(lga,cimbl),10),163). dl(start(2,(cri,cri),11),156). dl(arrival(2,(cri,cri),10),156). dl(start(3,(cri,cri),11),151). dl(arrival(3,(cri,cri),10),151). dl(start(4,(cimbl,cimbl),11),151). dl(arrival(4,(cimbl,cimbl),10),151). dl(start(5,(cimbl,cimbl),11),160). dl(arrival(5,(dandy,cimbl),10),160). dl(start(9,(cri,cri),11),140). dl(arrival(9,(cri,cri),10),140). dl(start(11,(cimbl,cimbl),11),157). dl(arrival(11,(cimbl,cimbl),10),157). dl(start(13,(teb,teb),11),146). dl(arrival(13,(teb,teb),10),146). dl(start(14,(cimbl,cimbl),11),135). dl(arrival(14,(cimbl,cimbl),10),135). dl(start(16,(dandy,dandy),11),167). dl(arrival(16,(teb,dandy),10),167). dl(start(0,(cimbl,cimbl),12),152). dl(arrival(0,(cimbl,cimbl),11),152). dl(start(1,(cimbl,cimbl),12),163). dl(arrival(1,(cimbl,cimbl),11),163). dl(start(2,(cri,cri),12),156). dl(arrival(2,(cri,cri),11),156). dl(start(3,(cri,cri),12),151). dl(arrival(3,(cri,cri),11),151). dl(start(4,(cimbl,cimbl),12),151). dl(arrival(4,(cimbl,cimbl),11),151). dl(start(5,(cimbl,cimbl),12),160). dl(arrival(5,(cimbl,cimbl),11),160). dl(start(9,(cri,cri),12),140). dl(arrival(9,(cri,cri),11),140). dl(start(11,(cimbl,cimbl),12),157). dl(arrival(11,(cimbl,cimbl),11),157). dl(start(12,(dandy,dandy),12),168). dl(arrival(12,(ryend,dandy),11),168). dl(start(13,(teb,teb),12),146). dl(arrival(13,(teb,teb),11),146). dl(start(14,(cimbl,cimbl),12),135). dl(arrival(14,(cimbl,cimbl),11),135). dl(start(16,(dandy,dandy),12),167). dl(arrival(16,(dandy,dandy),11),167). dl(start(17,(cimbl,cimbl),12),176). dl(arrival(17,(cimbl,cimbl),11),176). dl(start(1,(cimbl,cimbl),13),163). dl(arrival(1,(cimbl,cimbl),12),163). dl(start(2,(cri,cri),13),156). dl(arrival(2,(cri,cri),12),156). dl(start(3,(cri,cri),13),151). dl(arrival(3,(cri,cri),12),151). dl(start(4,(cimbl,cimbl),13),151). dl(arrival(4,(cimbl,cimbl),12),151). dl(start(5,(cimbl,cimbl),13),160). dl(arrival(5,(cimbl,cimbl),12),160). dl(start(9,(cri,cri),13),140). dl(arrival(9,(cri,cri),12),140). dl(start(11,(cimbl,cimbl),13),157). dl(arrival(11,(cimbl,cimbl),12),157). dl(start(12,(dandy,dandy),13),168). dl(arrival(12,(dandy,dandy),12),168). dl(start(13,(teb,teb),13),146). dl(arrival(13,(teb,teb),12),146). dl(start(14,(cimbl,cimbl),13),135). dl(arrival(14,(cimbl,cimbl),12),135). dl(start(16,(dandy,dandy),13),167). dl(arrival(16,(dandy,dandy),12),167). dl(start(17,(cimbl,cimbl),13),176). dl(arrival(17,(cimbl,cimbl),12),176). dl(start(0,(dandy,jfk),2),31). dl(arrival(0,(jfk,dandy),1),12). dl(start(1,(jfk,dandy),2),30). dl(arrival(1,(teb,jfk),1),11). dl(start(2,(jfk,dandy),2),27). dl(arrival(2,(cimbl,jfk),1),8). dl(start(3,(jfk,dandy),2),31). dl(arrival(3,(dandy,jfk),1),12). dl(start(4,(jfk,dandy),2),25). dl(arrival(4,(lga,jfk),1),6). dl(start(5,(jfk,teb),2),29). dl(arrival(5,(ryend,jfk),1),11). dl(start(6,(jfk,teb),2),29). dl(arrival(6,(teb,jfk),1),11). dl(start(8,(jfk,ryend),2),26). dl(arrival(8,(cimbl,jfk),1),8). dl(start(9,(jfk,ryend),2),30). dl(arrival(9,(dandy,jfk),1),12). dl(start(10,(dandy,cri),2),27). dl(arrival(10,(jfk,dandy),1),12). dl(start(11,(jfk,ryend),2),29). dl(arrival(11,(ryend,jfk),1),11). dl(start(12,(teb,jfk),2),28). dl(arrival(12,(cri,teb),1),10). dl(start(13,(jfk,ryend),2),29). dl(arrival(13,(ryend,jfk),1),11). dl(start(14,(teb,cri),2),25). dl(arrival(14,(cri,teb),1),10). dl(start(15,(dandy,cri),2),27). dl(arrival(15,(jfk,dandy),1),12). dl(start(16,(teb,cri),2),25). dl(arrival(16,(cri,teb),1),10). dl(start(17,(lga,ryend),2),23). dl(arrival(17,(ryend,lga),1),9). dl(start(0,(jfk,cri),3),49). dl(arrival(0,(dandy,jfk),2),43). dl(start(1,(dandy,lga),3),55). dl(arrival(1,(jfk,dandy),2),42). dl(start(2,(dandy,cri),3),54). dl(arrival(2,(jfk,dandy),2),39). dl(start(3,(dandy,cri),3),58). dl(arrival(3,(jfk,dandy),2),43). dl(start(4,(dandy,lga),3),50). dl(arrival(4,(jfk,dandy),2),37). dl(start(5,(teb,cri),3),55). dl(arrival(5,(jfk,teb),2),40). dl(start(6,(teb,cri),3),55). dl(arrival(6,(jfk,teb),2),40). dl(start(8,(ryend,lga),3),51). dl(arrival(8,(jfk,ryend),2),37). dl(start(9,(ryend,cri),3),54). dl(arrival(9,(jfk,ryend),2),41). dl(start(11,(ryend,cri),3),53). dl(arrival(11,(jfk,ryend),2),40). dl(start(12,(jfk,cri),3),45). dl(arrival(12,(teb,jfk),2),39). dl(start(13,(ryend,cri),3),53). dl(arrival(13,(jfk,ryend),2),40). dl(start(14,(cri,dandy),3),50). dl(arrival(14,(teb,cri),2),35). dl(start(15,(cri,teb),3),52). dl(arrival(15,(dandy,cri),2),37). dl(start(16,(cri,teb),3),50). dl(arrival(16,(teb,cri),2),35). dl(start(17,(ryend,lga),3),46). dl(arrival(17,(lga,ryend),2),32). dl(start(0,(cri,dandy),4),67). dl(arrival(0,(jfk,cri),3),52). dl(start(1,(lga,ryend),4),77). dl(arrival(1,(dandy,lga),3),63). dl(start(2,(cri,ryend),4),77). dl(arrival(2,(dandy,cri),3),64). dl(start(3,(cri,ryend),4),81). dl(arrival(3,(dandy,cri),3),68). dl(start(4,(lga,ryend),4),72). dl(arrival(4,(dandy,lga),3),58). dl(start(5,(cri,ryend),4),78). dl(arrival(5,(teb,cri),3),65). dl(start(8,(lga,ryend),4),74). dl(arrival(8,(ryend,lga),3),60). dl(start(9,(cri,ryend),4),75). dl(arrival(9,(ryend,cri),3),62). dl(start(11,(cri,ryend),4),74). dl(arrival(11,(ryend,cri),3),61). dl(start(12,(cri,dandy),4),63). dl(arrival(12,(jfk,cri),3),48). dl(start(13,(cri,ryend),4),74). dl(arrival(13,(ryend,cri),3),61). dl(start(14,(dandy,teb),4),66). dl(arrival(14,(cri,dandy),3),60). dl(start(15,(teb,cri),4),77). dl(arrival(15,(cri,teb),3),62). dl(start(16,(teb,ryend),4),71). dl(arrival(16,(cri,teb),3),60). dl(start(17,(lga,jfk),4),65). dl(arrival(17,(ryend,lga),3),55). dl(start(0,(dandy,cimbl),5),84). dl(arrival(0,(cri,dandy),4),77). dl(start(1,(ryend,cimbl),5),94). dl(arrival(1,(lga,ryend),4),86). dl(start(2,(ryend,cri),5),98). dl(arrival(2,(cri,ryend),4),85). dl(start(3,(ryend,cri),5),102). dl(arrival(3,(cri,ryend),4),89). dl(start(4,(ryend,teb),5),92). dl(arrival(4,(lga,ryend),4),81). dl(start(5,(ryend,cimbl),5),94). dl(arrival(5,(cri,ryend),4),86). dl(start(8,(ryend,cimbl),5),91). dl(arrival(8,(lga,ryend),4),83). dl(start(9,(ryend,lga),5),97). dl(arrival(9,(cri,ryend),4),83). dl(start(11,(ryend,cri),5),95). dl(arrival(11,(cri,ryend),4),82). dl(start(12,(dandy,cimbl),5),80). dl(arrival(12,(cri,dandy),4),73). dl(start(13,(ryend,cimbl),5),90). dl(arrival(13,(cri,ryend),4),82). dl(start(14,(teb,ryend),5),81). dl(arrival(14,(dandy,teb),4),70). dl(start(15,(cri,lga),5),97). dl(arrival(15,(teb,cri),4),87). dl(start(16,(ryend,cri),5),91). dl(arrival(16,(teb,ryend),4),78). dl(start(17,(jfk,cimbl),5),84). dl(arrival(17,(lga,jfk),4),71). dl(start(0,(cimbl,cri),6),97). dl(arrival(0,(dandy,cimbl),5),88). dl(start(1,(cimbl,cri),6),108). dl(arrival(1,(ryend,cimbl),5),99). dl(start(2,(cri,lga),6),116). dl(arrival(2,(ryend,cri),5),106). dl(start(3,(cri,lga),6),120). dl(arrival(3,(ryend,cri),5),110). dl(start(4,(teb,lga),6),108). dl(arrival(4,(ryend,teb),5),99). dl(start(5,(cimbl,cri),6),108). dl(arrival(5,(ryend,cimbl),5),99). dl(start(8,(cimbl,cri),6),105). dl(arrival(8,(ryend,cimbl),5),96). dl(start(9,(lga,cri),6),116). dl(arrival(9,(ryend,lga),5),106). dl(start(11,(cri,lga),6),113). dl(arrival(11,(ryend,cri),5),103). dl(start(12,(cimbl,cri),6),93). dl(arrival(12,(dandy,cimbl),5),84). dl(start(13,(cimbl,cri),6),104). dl(arrival(13,(ryend,cimbl),5),95). dl(start(14,(ryend,cimbl),6),96). dl(arrival(14,(teb,ryend),5),88). dl(start(15,(lga,cri),6),113). dl(arrival(15,(cri,lga),5),103). dl(start(16,(cri,lga),6),109). dl(arrival(16,(ryend,cri),5),99). dl(start(17,(cimbl,cri),6),101). dl(arrival(17,(jfk,cimbl),5),92). dl(start(0,(cri,cimbl),7),112). dl(arrival(0,(cimbl,cri),6),103). dl(start(1,(cri,cimbl),7),123). dl(arrival(1,(cimbl,cri),6),114). dl(start(2,(lga,cri),7),132). dl(arrival(2,(cri,lga),6),122). dl(start(3,(lga,jfk),7),136). dl(arrival(3,(cri,lga),6),126). dl(start(4,(lga,teb),7),122). dl(arrival(4,(teb,lga),6),113). dl(start(5,(cri,cimbl),7),123). dl(arrival(5,(cimbl,cri),6),114). dl(start(8,(cri,lga),7),121). dl(arrival(8,(cimbl,cri),6),111). dl(start(9,(cri,jfk),7),128). dl(arrival(9,(lga,cri),6),122). dl(start(11,(lga,teb),7),128). dl(arrival(11,(cri,lga),6),119). dl(start(12,(cri,ryend),7),112). dl(arrival(12,(cimbl,cri),6),99). dl(start(13,(cri,lga),7),120). dl(arrival(13,(cimbl,cri),6),110). dl(start(14,(cimbl,teb),7),107). dl(arrival(14,(ryend,cimbl),6),101). dl(start(15,(cri,jfk),7),125). dl(arrival(15,(lga,cri),6),119). dl(start(16,(lga,dandy),7),128). dl(arrival(16,(cri,lga),6),115). dl(start(17,(cri,jfk),7),113). dl(arrival(17,(cimbl,cri),6),107). dl(start(0,(cimbl,ryend),8),126). dl(arrival(0,(cri,cimbl),7),118). dl(start(1,(cimbl,teb),8),135). dl(arrival(1,(cri,cimbl),7),129). dl(start(2,(cri,jfk),8),144). dl(arrival(2,(lga,cri),7),138). dl(start(3,(jfk,cri),8),148). dl(arrival(3,(lga,jfk),7),142). dl(start(4,(teb,lga),8),136). dl(arrival(4,(lga,teb),7),127). dl(start(5,(cimbl,teb),8),135). dl(arrival(5,(cri,cimbl),7),129). dl(start(8,(lga,cimbl),8),133). dl(arrival(8,(cri,lga),7),127). dl(start(9,(jfk,cri),8),137). dl(arrival(9,(cri,jfk),7),131). dl(start(11,(teb,lga),8),142). dl(arrival(11,(lga,teb),7),133). dl(start(12,(ryend,teb),8),131). dl(arrival(12,(cri,ryend),7),120). dl(start(13,(lga,cimbl),8),132). dl(arrival(13,(cri,lga),7),126). dl(start(14,(teb,lga),8),120). dl(arrival(14,(cimbl,teb),7),111). dl(start(15,(jfk,ryend),8),146). dl(arrival(15,(cri,jfk),7),128). dl(start(16,(dandy,cimbl),8),143). dl(arrival(16,(lga,dandy),7),136). dl(start(17,(jfk,teb),8),134). dl(arrival(17,(cri,jfk),7),116). dl(start(1,(teb,lga),9),148). dl(arrival(1,(cimbl,teb),8),139). dl(start(2,(jfk,cri),9),153). dl(arrival(2,(cri,jfk),8),147). dl(start(4,(lga,cimbl),9),147). dl(arrival(4,(teb,lga),8),141). dl(start(5,(teb,dandy),9),145). dl(arrival(5,(cimbl,teb),8),139). dl(start(8,(cimbl,dandy),9),144). dl(arrival(8,(lga,cimbl),8),137). dl(start(11,(lga,cimbl),9),153). dl(arrival(11,(teb,lga),8),147). dl(start(12,(teb,dandy),9),144). dl(arrival(12,(ryend,teb),8),138). dl(start(13,(cimbl,teb),9),142). dl(arrival(13,(lga,cimbl),8),136). dl(start(14,(lga,cimbl),9),131). dl(arrival(14,(teb,lga),8),125). dl(start(15,(ryend,dandy),9),163). dl(arrival(15,(jfk,ryend),8),157). dl(start(16,(cimbl,teb),9),153). dl(arrival(16,(dandy,cimbl),8),147). dl(start(17,(teb,ryend),9),156). dl(arrival(17,(jfk,teb),8),145). dl(start(1,(lga,cimbl),10),159). dl(arrival(1,(teb,lga),9),153). dl(start(5,(dandy,cimbl),10),156). dl(arrival(5,(teb,dandy),9),149). dl(start(12,(dandy,ryend),10),154). dl(arrival(12,(teb,dandy),9),148). dl(start(16,(teb,dandy),10),163). dl(arrival(16,(cimbl,teb),9),157). dl(start(12,(ryend,dandy),11),164). dl(arrival(12,(dandy,ryend),10),158). dl(start(10,(dandy,dandy),10),167). dl(arrival(10,(teb,dandy),9),167). dl(start(10,(dandy,dandy),11),167). dl(arrival(10,(dandy,dandy),10),167). dl(start(10,(dandy,dandy),12),167). dl(arrival(10,(dandy,dandy),11),167). dl(start(10,(cri,ryend),3),50). dl(arrival(10,(dandy,cri),2),37). dl(start(10,(ryend,teb),4),69). dl(arrival(10,(cri,ryend),3),58). dl(start(10,(teb,jfk),5),94). dl(arrival(10,(ryend,teb),4),76). dl(start(10,(jfk,dandy),6),124). dl(arrival(10,(teb,jfk),5),105). dl(start(10,(dandy,cimbl),7),143). dl(arrival(10,(jfk,dandy),6),136). dl(start(10,(cimbl,teb),8),153). dl(arrival(10,(dandy,cimbl),7),147). dl(start(10,(teb,dandy),9),163). dl(arrival(10,(cimbl,teb),8),157). dl(start(0,(ryend,dandy),9),137). dl(arrival(0,(cimbl,ryend),8),131). dl(start(8,(dandy,dandy),12),168). dl(arrival(8,(ryend,dandy),11),168). dl(start(8,(dandy,dandy),13),168). dl(arrival(8,(dandy,dandy),12),168). dl(start(8,(dandy,ryend),10),154). dl(arrival(8,(cimbl,dandy),9),148). dl(start(8,(ryend,dandy),11),164). dl(arrival(8,(dandy,ryend),10),158). dl(start(0,(dandy,cimbl),10),148). dl(arrival(0,(ryend,dandy),9),141). dl(start(6,(cri,cri),10),165). dl(arrival(6,(jfk,cri),9),165). dl(start(6,(cri,cri),11),165). dl(arrival(6,(cri,cri),10),165). dl(start(6,(cri,cri),12),165). dl(arrival(6,(cri,cri),11),165). dl(start(6,(cri,cri),13),165). dl(arrival(6,(cri,cri),12),165). dl(start(6,(cri,cri),14),165). dl(arrival(6,(cri,cri),13),165). dl(start(6,(cri,teb),4),80). dl(arrival(6,(teb,cri),3),65). dl(start(6,(teb,ryend),5),101). dl(arrival(6,(cri,teb),4),90). dl(start(6,(ryend,lga),6),122). dl(arrival(6,(teb,ryend),5),108). dl(start(6,(lga,cri),7),141). dl(arrival(6,(ryend,lga),6),131). dl(start(6,(cri,jfk),8),153). dl(arrival(6,(lga,cri),7),147). dl(start(6,(jfk,cri),9),162). dl(arrival(6,(cri,jfk),8),156). dl(start(15,(cimbl,cimbl),11),178). dl(arrival(15,(dandy,cimbl),10),178). dl(start(15,(cimbl,cimbl),12),178). dl(arrival(15,(cimbl,cimbl),11),178). dl(start(15,(cimbl,cimbl),13),178). dl(arrival(15,(cimbl,cimbl),12),178). dl(start(15,(dandy,cimbl),10),174). dl(arrival(15,(ryend,dandy),9),167). dl(start(17,(cimbl,cimbl),11),176). dl(arrival(17,(ryend,cimbl),10),176). dl(start(17,(cimbl,cimbl),14),176). dl(arrival(17,(cimbl,cimbl),13),176). dl(start(17,(ryend,cimbl),10),171). dl(arrival(17,(teb,ryend),9),163). dl(arrival(7,(teb,teb),13),147). dl(start(7,(cimbl,jfk),1),0). dl(arrival(0,(cimbl,cimbl),12),152). dl(arrival(1,(cimbl,cimbl),13),163). dl(arrival(2,(cri,cri),13),156). dl(arrival(3,(cri,cri),13),151). dl(arrival(4,(cimbl,cimbl),13),151). dl(arrival(5,(cimbl,cimbl),13),160). dl(arrival(9,(cri,cri),13),140). dl(arrival(11,(cimbl,cimbl),13),157). dl(arrival(12,(dandy,dandy),13),168). dl(arrival(13,(teb,teb),13),146). dl(arrival(14,(cimbl,cimbl),13),135). dl(arrival(16,(dandy,dandy),13),167). dl(start(0,(jfk,dandy),1),0). dl(start(1,(teb,jfk),1),0). dl(start(2,(cimbl,jfk),1),0). dl(start(3,(dandy,jfk),1),0). dl(start(4,(lga,jfk),1),0). dl(start(5,(ryend,jfk),1),0). dl(start(6,(teb,jfk),1),0). dl(start(8,(cimbl,jfk),1),0). dl(start(9,(dandy,jfk),1),0). dl(start(10,(jfk,dandy),1),0). dl(start(11,(ryend,jfk),1),0). dl(start(12,(cri,teb),1),0). dl(start(13,(ryend,jfk),1),0). dl(start(14,(cri,teb),1),0). dl(start(15,(jfk,dandy),1),0). dl(start(16,(cri,teb),1),0). dl(start(17,(ryend,lga),1),0). dl(arrival(10,(dandy,dandy),12),167). dl(arrival(8,(dandy,dandy),13),168). dl(arrival(6,(cri,cri),14),165). dl(arrival(15,(cimbl,cimbl),13),178). dl(arrival(17,(cimbl,cimbl),14),176).