no_swap(0). no_swap(1). no_swap(2). no_swap(7). no_swap(8). no_swap(9). no_swap(11). no_swap(12). no_swap(5). no_swap(6). no_swap(10). no_swap(13). no_swap(3). no_swap(4). no_swap(14). no_swap(15). no_swap(16). number_of_agent_need_switch(0). as(0,(ryend,ryend),0,9). as(1,(ryend,ryend),0,9). as(2,(ryend,ryend),0,9). as(7,(ryend,ryend),0,9). as(8,(ryend,ryend),0,9). as(9,(ryend,ryend),0,9). as(11,(ryend,ryend),0,9). as(12,(ryend,ryend),0,9). as(0,(ryend,ryend),0,10). as(1,(ryend,ryend),0,10). as(2,(ryend,ryend),0,10). as(5,(ryend,ryend),0,10). as(6,(ryend,ryend),0,10). as(7,(ryend,ryend),0,10). as(8,(ryend,ryend),0,10). as(9,(ryend,ryend),0,10). as(10,(dandy,dandy),0,10). as(11,(ryend,ryend),0,10). as(12,(ryend,ryend),0,10). as(13,(dandy,dandy),0,10). as(0,(ryend,ryend),0,11). as(1,(ryend,ryend),0,11). as(2,(ryend,ryend),0,11). as(3,(dandy,dandy),0,11). as(4,(lga,lga),0,11). as(5,(ryend,ryend),0,11). as(6,(ryend,ryend),0,11). as(7,(ryend,ryend),0,11). as(8,(ryend,ryend),0,11). as(9,(ryend,ryend),0,11). as(10,(dandy,dandy),0,11). as(11,(ryend,ryend),0,11). as(12,(ryend,ryend),0,11). as(13,(dandy,dandy),0,11). as(14,(ryend,ryend),0,11). as(15,(dandy,dandy),0,11). as(16,(lga,lga),0,11). as(0,(ryend,ryend),0,12). as(1,(ryend,ryend),0,12). as(2,(ryend,ryend),0,12). as(3,(dandy,dandy),0,12). as(4,(lga,lga),0,12). as(5,(ryend,ryend),0,12). as(6,(ryend,ryend),0,12). as(7,(ryend,ryend),0,12). as(8,(ryend,ryend),0,12). as(9,(ryend,ryend),0,12). as(10,(dandy,dandy),0,12). as(11,(ryend,ryend),0,12). as(12,(ryend,ryend),0,12). as(13,(dandy,dandy),0,12). as(14,(ryend,ryend),0,12). as(15,(dandy,dandy),0,12). as(16,(lga,lga),0,12). as(0,(ryend,ryend),0,13). as(1,(ryend,ryend),0,13). as(2,(ryend,ryend),0,13). as(3,(dandy,dandy),0,13). as(4,(lga,lga),0,13). as(5,(ryend,ryend),0,13). as(6,(ryend,ryend),0,13). as(7,(ryend,ryend),0,13). as(8,(ryend,ryend),0,13). as(9,(ryend,ryend),0,13). as(10,(dandy,dandy),0,13). as(11,(ryend,ryend),0,13). as(12,(ryend,ryend),0,13). as(13,(dandy,dandy),0,13). as(14,(ryend,ryend),0,13). as(15,(dandy,dandy),0,13). as(16,(lga,lga),0,13). as(0,(teb,jfk),4,1). as(1,(ryend,jfk),1,1). as(2,(ryend,cimbl),4,1). as(3,(lga,jfk),4,1). as(4,(teb,cri),4,1). as(5,(jfk,dandy),4,1). as(6,(ryend,cri),4,1). as(7,(dandy,jfk),2,1). as(8,(lga,jfk),1,1). as(9,(teb,jfk),1,1). as(10,(teb,jfk),4,1). as(11,(dandy,jfk),4,1). as(12,(dandy,jfk),1,1). as(13,(ryend,cri),4,1). as(14,(ryend,jfk),1,1). as(15,(lga,jfk),4,1). as(16,(jfk,dandy),4,1). as(0,(jfk,dandy),4,2). as(1,(jfk,teb),4,2). as(2,(cimbl,jfk),4,2). as(3,(jfk,ryend),4,2). as(4,(cri,jfk),4,2). as(5,(dandy,teb),4,2). as(6,(cri,jfk),4,2). as(7,(jfk,teb),4,2). as(8,(jfk,dandy),4,2). as(9,(jfk,dandy),4,2). as(10,(jfk,dandy),4,2). as(11,(jfk,dandy),4,2). as(12,(jfk,ryend),4,2). as(13,(cri,jfk),4,2). as(14,(jfk,teb),4,2). as(15,(jfk,ryend),4,2). as(16,(dandy,teb),4,2). as(0,(dandy,lga),4,3). as(1,(teb,lga),4,3). as(2,(jfk,ryend),4,3). as(3,(ryend,cri),1,3). as(4,(jfk,ryend),4,3). as(5,(teb,cri),4,3). as(6,(jfk,ryend),4,3). as(7,(teb,cimbl),4,3). as(8,(dandy,cimbl),1,3). as(9,(dandy,lga),2,3). as(10,(dandy,cimbl),1,3). as(11,(dandy,lga),4,3). as(12,(ryend,lga),4,3). as(13,(jfk,ryend),4,3). as(14,(teb,cri),2,3). as(15,(ryend,lga),4,3). as(16,(teb,cri),4,3). as(0,(lga,dandy),4,4). as(1,(lga,ryend),4,4). as(2,(ryend,teb),4,4). as(3,(cri,dandy),4,4). as(4,(ryend,teb),4,4). as(5,(cri,dandy),4,4). as(6,(ryend,teb),4,4). as(7,(cimbl,jfk),4,4). as(8,(cimbl,jfk),4,4). as(9,(lga,ryend),4,4). as(10,(cimbl,jfk),4,4). as(11,(lga,cri),4,4). as(12,(lga,ryend),4,4). as(13,(ryend,teb),4,4). as(14,(cri,dandy),4,4). as(15,(lga,dandy),4,4). as(16,(cri,jfk),4,4). as(0,(dandy,teb),2,5). as(1,(ryend,teb),4,5). as(2,(teb,ryend),4,5). as(3,(dandy,teb),1,5). as(4,(teb,ryend),4,5). as(5,(dandy,teb),1,5). as(6,(teb,ryend),4,5). as(7,(jfk,lga),4,5). as(8,(jfk,lga),4,5). as(9,(ryend,lga),2,5). as(10,(jfk,cri),4,5). as(11,(cri,lga),4,5). as(12,(ryend,teb),4,5). as(13,(teb,ryend),4,5). as(14,(dandy,teb),4,5). as(15,(dandy,teb),1,5). as(16,(jfk,cimbl),4,5). as(0,(teb,ryend),4,6). as(1,(teb,lga),4,6). as(2,(ryend,teb),3,6). as(3,(teb,lga),4,6). as(4,(ryend,cimbl),1,6). as(5,(teb,lga),4,6). as(6,(ryend,cimbl),1,6). as(7,(lga,cri),4,6). as(8,(lga,cri),4,6). as(9,(lga,cri),4,6). as(10,(cri,lga),4,6). as(11,(lga,cri),4,6). as(12,(teb,ryend),4,6). as(13,(ryend,cimbl),1,6). as(14,(teb,lga),4,6). as(15,(teb,lga),4,6). as(16,(cimbl,cri),4,6). as(0,(ryend,dandy),4,7). as(1,(lga,cimbl),1,7). as(2,(teb,cimbl),4,7). as(3,(lga,cri),4,7). as(4,(cimbl,cri),4,7). as(5,(lga,cimbl),2,7). as(6,(cimbl,ryend),4,7). as(7,(cri,lga),4,7). as(8,(cri,cimbl),4,7). as(9,(cri,cimbl),4,7). as(10,(lga,cri),1,7). as(11,(cri,cimbl),4,7). as(12,(ryend,dandy),4,7). as(13,(cimbl,cri),4,7). as(14,(lga,cri),1,7). as(15,(lga,cimbl),4,7). as(16,(cri,lga),4,7). as(0,(dandy,ryend),4,8). as(1,(cimbl,ryend),4,8). as(2,(cimbl,ryend),4,8). as(3,(cri,jfk),4,8). as(4,(cri,jfk),4,8). as(5,(cimbl,jfk),1,8). as(6,(ryend,dandy),2,8). as(7,(lga,ryend),1,8). as(8,(cimbl,ryend),4,8). as(9,(cimbl,ryend),4,8). as(10,(cri,cimbl),4,8). as(11,(cimbl,ryend),4,8). as(12,(dandy,ryend),4,8). as(13,(cri,cimbl),1,8). as(14,(cri,cimbl),4,8). as(15,(cimbl,jfk),1,8). as(16,(lga,teb),1,8). as(3,(jfk,lga),3,9). as(4,(jfk,cimbl),2,9). as(5,(jfk,ryend),2,9). as(6,(dandy,ryend),4,9). as(10,(cimbl,dandy),4,9). as(13,(cimbl,dandy),4,9). as(14,(cimbl,dandy),4,9). as(15,(jfk,teb),2,9). as(16,(teb,cimbl),4,9). as(3,(lga,dandy),1,10). as(4,(cimbl,lga),4,10). as(14,(dandy,ryend),2,10). as(15,(teb,dandy),4,10). as(16,(cimbl,lga),4,10). dl(start(0,(ryend,ryend),9),132). dl(arrival(0,(dandy,ryend),8),132). dl(start(1,(ryend,ryend),9),132). dl(arrival(1,(cimbl,ryend),8),132). dl(start(2,(ryend,ryend),9),132). dl(arrival(2,(cimbl,ryend),8),132). dl(start(7,(ryend,ryend),9),143). dl(arrival(7,(lga,ryend),8),143). dl(start(8,(ryend,ryend),9),129). dl(arrival(8,(cimbl,ryend),8),129). dl(start(9,(ryend,ryend),9),153). dl(arrival(9,(cimbl,ryend),8),153). dl(start(11,(ryend,ryend),9),140). dl(arrival(11,(cimbl,ryend),8),140). dl(start(12,(ryend,ryend),9),143). dl(arrival(12,(dandy,ryend),8),143). dl(start(0,(ryend,ryend),10),132). dl(arrival(0,(ryend,ryend),9),132). dl(start(1,(ryend,ryend),10),132). dl(arrival(1,(ryend,ryend),9),132). dl(start(2,(ryend,ryend),10),132). dl(arrival(2,(ryend,ryend),9),132). dl(start(5,(ryend,ryend),10),156). dl(arrival(5,(jfk,ryend),9),156). dl(start(6,(ryend,ryend),10),128). dl(arrival(6,(dandy,ryend),9),128). dl(start(7,(ryend,ryend),10),143). dl(arrival(7,(ryend,ryend),9),143). dl(start(8,(ryend,ryend),10),129). dl(arrival(8,(ryend,ryend),9),129). dl(start(9,(ryend,ryend),10),153). dl(arrival(9,(ryend,ryend),9),153). dl(start(10,(dandy,dandy),10),141). dl(arrival(10,(cimbl,dandy),9),141). dl(start(11,(ryend,ryend),10),140). dl(arrival(11,(ryend,ryend),9),140). dl(start(12,(ryend,ryend),10),143). dl(arrival(12,(ryend,ryend),9),143). dl(start(13,(dandy,dandy),10),136). dl(arrival(13,(cimbl,dandy),9),136). dl(start(0,(ryend,ryend),11),132). dl(arrival(0,(ryend,ryend),10),132). dl(start(1,(ryend,ryend),11),132). dl(arrival(1,(ryend,ryend),10),132). dl(start(2,(ryend,ryend),11),132). dl(arrival(2,(ryend,ryend),10),132). dl(start(3,(dandy,dandy),11),167). dl(arrival(3,(lga,dandy),10),167). dl(start(4,(lga,lga),11),152). dl(arrival(4,(cimbl,lga),10),152). dl(start(5,(ryend,ryend),11),156). dl(arrival(5,(ryend,ryend),10),156). dl(start(6,(ryend,ryend),11),128). dl(arrival(6,(ryend,ryend),10),128). dl(start(7,(ryend,ryend),11),143). dl(arrival(7,(ryend,ryend),10),143). dl(start(8,(ryend,ryend),11),129). dl(arrival(8,(ryend,ryend),10),129). dl(start(9,(ryend,ryend),11),153). dl(arrival(9,(ryend,ryend),10),153). dl(start(10,(dandy,dandy),11),141). dl(arrival(10,(dandy,dandy),10),141). dl(start(11,(ryend,ryend),11),140). dl(arrival(11,(ryend,ryend),10),140). dl(start(12,(ryend,ryend),11),143). dl(arrival(12,(ryend,ryend),10),143). dl(start(13,(dandy,dandy),11),136). dl(arrival(13,(dandy,dandy),10),136). dl(start(14,(ryend,ryend),11),166). dl(arrival(14,(dandy,ryend),10),166). dl(start(15,(dandy,dandy),11),173). dl(arrival(15,(teb,dandy),10),173). dl(start(16,(lga,lga),11),142). dl(arrival(16,(cimbl,lga),10),142). dl(start(0,(ryend,ryend),12),132). dl(arrival(0,(ryend,ryend),11),132). dl(start(1,(ryend,ryend),12),132). dl(arrival(1,(ryend,ryend),11),132). dl(start(2,(ryend,ryend),12),132). dl(arrival(2,(ryend,ryend),11),132). dl(start(3,(dandy,dandy),12),167). dl(arrival(3,(dandy,dandy),11),167). dl(start(4,(lga,lga),12),152). dl(arrival(4,(lga,lga),11),152). dl(start(5,(ryend,ryend),12),156). dl(arrival(5,(ryend,ryend),11),156). dl(start(6,(ryend,ryend),12),128). dl(arrival(6,(ryend,ryend),11),128). dl(start(7,(ryend,ryend),12),143). dl(arrival(7,(ryend,ryend),11),143). dl(start(8,(ryend,ryend),12),129). dl(arrival(8,(ryend,ryend),11),129). dl(start(9,(ryend,ryend),12),153). dl(arrival(9,(ryend,ryend),11),153). dl(start(10,(dandy,dandy),12),141). dl(arrival(10,(dandy,dandy),11),141). dl(start(11,(ryend,ryend),12),140). dl(arrival(11,(ryend,ryend),11),140). dl(start(12,(ryend,ryend),12),143). dl(arrival(12,(ryend,ryend),11),143). dl(start(13,(dandy,dandy),12),136). dl(arrival(13,(dandy,dandy),11),136). dl(start(14,(ryend,ryend),12),166). dl(arrival(14,(ryend,ryend),11),166). dl(start(15,(dandy,dandy),12),173). dl(arrival(15,(dandy,dandy),11),173). dl(start(16,(lga,lga),12),142). dl(arrival(16,(lga,lga),11),142). dl(start(0,(ryend,ryend),13),132). dl(arrival(0,(ryend,ryend),12),132). dl(start(1,(ryend,ryend),13),132). dl(arrival(1,(ryend,ryend),12),132). dl(start(2,(ryend,ryend),13),132). dl(arrival(2,(ryend,ryend),12),132). dl(start(3,(dandy,dandy),13),167). dl(arrival(3,(dandy,dandy),12),167). dl(start(4,(lga,lga),13),152). dl(arrival(4,(lga,lga),12),152). dl(start(5,(ryend,ryend),13),156). dl(arrival(5,(ryend,ryend),12),156). dl(start(6,(ryend,ryend),13),128). dl(arrival(6,(ryend,ryend),12),128). dl(start(7,(ryend,ryend),13),143). dl(arrival(7,(ryend,ryend),12),143). dl(start(8,(ryend,ryend),13),129). dl(arrival(8,(ryend,ryend),12),129). dl(start(9,(ryend,ryend),13),153). dl(arrival(9,(ryend,ryend),12),153). dl(start(10,(dandy,dandy),13),141). dl(arrival(10,(dandy,dandy),12),141). dl(start(11,(ryend,ryend),13),140). dl(arrival(11,(ryend,ryend),12),140). dl(start(12,(ryend,ryend),13),143). dl(arrival(12,(ryend,ryend),12),143). dl(start(13,(dandy,dandy),13),136). dl(arrival(13,(dandy,dandy),12),136). dl(start(14,(ryend,ryend),13),166). dl(arrival(14,(ryend,ryend),12),166). dl(start(15,(dandy,dandy),13),173). dl(arrival(15,(dandy,dandy),12),173). dl(start(16,(lga,lga),13),142). dl(arrival(16,(lga,lga),12),142). dl(start(0,(jfk,dandy),2),30). dl(arrival(0,(teb,jfk),1),11). dl(start(1,(jfk,teb),2),29). dl(arrival(1,(ryend,jfk),1),11). dl(start(2,(cimbl,jfk),2),18). dl(arrival(2,(ryend,cimbl),1),5). dl(start(3,(jfk,ryend),2),24). dl(arrival(3,(lga,jfk),1),6). dl(start(4,(cri,jfk),2),16). dl(arrival(4,(teb,cri),1),10). dl(start(5,(dandy,teb),2),18). dl(arrival(5,(jfk,dandy),1),12). dl(start(6,(cri,jfk),2),14). dl(arrival(6,(ryend,cri),1),8). dl(start(7,(jfk,teb),2),30). dl(arrival(7,(dandy,jfk),1),12). dl(start(8,(jfk,dandy),2),25). dl(arrival(8,(lga,jfk),1),6). dl(start(9,(jfk,dandy),2),30). dl(arrival(9,(teb,jfk),1),11). dl(start(10,(jfk,dandy),2),30). dl(arrival(10,(teb,jfk),1),11). dl(start(11,(jfk,dandy),2),31). dl(arrival(11,(dandy,jfk),1),12). dl(start(12,(jfk,ryend),2),30). dl(arrival(12,(dandy,jfk),1),12). dl(start(13,(cri,jfk),2),14). dl(arrival(13,(ryend,cri),1),8). dl(start(14,(jfk,teb),2),29). dl(arrival(14,(ryend,jfk),1),11). dl(start(15,(jfk,ryend),2),24). dl(arrival(15,(lga,jfk),1),6). dl(start(16,(dandy,teb),2),18). dl(arrival(16,(jfk,dandy),1),12). dl(start(0,(dandy,lga),3),55). dl(arrival(0,(jfk,dandy),2),42). dl(start(1,(teb,lga),3),49). dl(arrival(1,(jfk,teb),2),40). dl(start(2,(jfk,ryend),3),44). dl(arrival(2,(cimbl,jfk),2),26). dl(start(3,(ryend,cri),3),48). dl(arrival(3,(jfk,ryend),2),35). dl(start(4,(jfk,ryend),3),37). dl(arrival(4,(cri,jfk),2),19). dl(start(5,(teb,cri),3),37). dl(arrival(5,(dandy,teb),2),22). dl(start(6,(jfk,ryend),3),35). dl(arrival(6,(cri,jfk),2),17). dl(start(7,(teb,cimbl),3),47). dl(arrival(7,(jfk,teb),2),41). dl(start(8,(dandy,cimbl),3),44). dl(arrival(8,(jfk,dandy),2),37). dl(start(9,(dandy,lga),3),55). dl(arrival(9,(jfk,dandy),2),42). dl(start(10,(dandy,cimbl),3),49). dl(arrival(10,(jfk,dandy),2),42). dl(start(11,(dandy,lga),3),56). dl(arrival(11,(jfk,dandy),2),43). dl(start(12,(ryend,lga),3),55). dl(arrival(12,(jfk,ryend),2),41). dl(start(13,(jfk,ryend),3),35). dl(arrival(13,(cri,jfk),2),17). dl(start(14,(teb,cri),3),55). dl(arrival(14,(jfk,teb),2),40). dl(start(15,(ryend,lga),3),49). dl(arrival(15,(jfk,ryend),2),35). dl(start(16,(teb,cri),3),37). dl(arrival(16,(dandy,teb),2),22). dl(start(0,(lga,dandy),4),76). dl(arrival(0,(dandy,lga),3),63). dl(start(1,(lga,ryend),4),68). dl(arrival(1,(teb,lga),3),54). dl(start(2,(ryend,teb),4),66). dl(arrival(2,(jfk,ryend),3),55). dl(start(3,(cri,dandy),4),71). dl(arrival(3,(ryend,cri),3),56). dl(start(4,(ryend,teb),4),59). dl(arrival(4,(jfk,ryend),3),48). dl(start(5,(cri,dandy),4),62). dl(arrival(5,(teb,cri),3),47). dl(start(6,(ryend,teb),4),57). dl(arrival(6,(jfk,ryend),3),46). dl(start(7,(cimbl,jfk),4),64). dl(arrival(7,(teb,cimbl),3),51). dl(start(8,(cimbl,jfk),4),61). dl(arrival(8,(dandy,cimbl),3),48). dl(start(9,(lga,ryend),4),77). dl(arrival(9,(dandy,lga),3),63). dl(start(10,(cimbl,jfk),4),66). dl(arrival(10,(dandy,cimbl),3),53). dl(start(11,(lga,cri),4),74). dl(arrival(11,(dandy,lga),3),64). dl(start(12,(lga,ryend),4),78). dl(arrival(12,(ryend,lga),3),64). dl(start(13,(ryend,teb),4),57). dl(arrival(13,(jfk,ryend),3),46). dl(start(14,(cri,dandy),4),80). dl(arrival(14,(teb,cri),3),65). dl(start(15,(lga,dandy),4),71). dl(arrival(15,(ryend,lga),3),58). dl(start(16,(cri,jfk),4),53). dl(arrival(16,(teb,cri),3),47). dl(start(0,(dandy,teb),5),90). dl(arrival(0,(lga,dandy),4),84). dl(start(1,(ryend,teb),5),88). dl(arrival(1,(lga,ryend),4),77). dl(start(2,(teb,ryend),5),84). dl(arrival(2,(ryend,teb),4),73). dl(start(3,(dandy,teb),5),87). dl(arrival(3,(cri,dandy),4),81). dl(start(4,(teb,ryend),5),77). dl(arrival(4,(ryend,teb),4),66). dl(start(5,(dandy,teb),5),78). dl(arrival(5,(cri,dandy),4),72). dl(start(6,(teb,ryend),5),75). dl(arrival(6,(ryend,teb),4),64). dl(start(7,(jfk,lga),5),82). dl(arrival(7,(cimbl,jfk),4),72). dl(start(8,(jfk,lga),5),79). dl(arrival(8,(cimbl,jfk),4),69). dl(start(9,(ryend,lga),5),100). dl(arrival(9,(lga,ryend),4),86). dl(start(10,(jfk,cri),5),80). dl(arrival(10,(cimbl,jfk),4),74). dl(start(11,(cri,lga),5),90). dl(arrival(11,(lga,cri),4),80). dl(start(12,(ryend,teb),5),98). dl(arrival(12,(lga,ryend),4),87). dl(start(13,(teb,ryend),5),75). dl(arrival(13,(ryend,teb),4),64). dl(start(14,(dandy,teb),5),96). dl(arrival(14,(cri,dandy),4),90). dl(start(15,(dandy,teb),5),85). dl(arrival(15,(lga,dandy),4),79). dl(start(16,(jfk,cimbl),5),69). dl(arrival(16,(cri,jfk),4),56). dl(start(0,(teb,ryend),6),105). dl(arrival(0,(dandy,teb),5),94). dl(start(1,(teb,lga),6),104). dl(arrival(1,(ryend,teb),5),95). dl(start(2,(ryend,teb),6),102). dl(arrival(2,(teb,ryend),5),91). dl(start(3,(teb,lga),6),100). dl(arrival(3,(dandy,teb),5),91). dl(start(4,(ryend,cimbl),6),92). dl(arrival(4,(teb,ryend),5),84). dl(start(5,(teb,lga),6),91). dl(arrival(5,(dandy,teb),5),82). dl(start(6,(ryend,cimbl),6),90). dl(arrival(6,(teb,ryend),5),82). dl(start(7,(lga,cri),6),98). dl(arrival(7,(jfk,lga),5),88). dl(start(8,(lga,cri),6),95). dl(arrival(8,(jfk,lga),5),85). dl(start(9,(lga,cri),6),119). dl(arrival(9,(ryend,lga),5),109). dl(start(10,(cri,lga),6),93). dl(arrival(10,(jfk,cri),5),83). dl(start(11,(lga,cri),6),106). dl(arrival(11,(cri,lga),5),96). dl(start(12,(teb,ryend),6),116). dl(arrival(12,(ryend,teb),5),105). dl(start(13,(ryend,cimbl),6),90). dl(arrival(13,(teb,ryend),5),82). dl(start(14,(teb,lga),6),109). dl(arrival(14,(dandy,teb),5),100). dl(start(15,(teb,lga),6),98). dl(arrival(15,(dandy,teb),5),89). dl(start(16,(cimbl,cri),6),86). dl(arrival(16,(jfk,cimbl),5),77). dl(start(0,(ryend,dandy),7),118). dl(arrival(0,(teb,ryend),6),112). dl(start(1,(lga,cimbl),7),115). dl(arrival(1,(teb,lga),6),109). dl(start(2,(teb,cimbl),7),115). dl(arrival(2,(ryend,teb),6),109). dl(start(3,(lga,cri),7),115). dl(arrival(3,(teb,lga),6),105). dl(start(4,(cimbl,cri),7),106). dl(arrival(4,(ryend,cimbl),6),97). dl(start(5,(lga,cimbl),7),102). dl(arrival(5,(teb,lga),6),96). dl(start(6,(cimbl,ryend),7),103). dl(arrival(6,(ryend,cimbl),6),95). dl(start(7,(cri,lga),7),114). dl(arrival(7,(lga,cri),6),104). dl(start(8,(cri,cimbl),7),110). dl(arrival(8,(lga,cri),6),101). dl(start(9,(cri,cimbl),7),134). dl(arrival(9,(lga,cri),6),125). dl(start(10,(lga,cri),7),109). dl(arrival(10,(cri,lga),6),99). dl(start(11,(cri,cimbl),7),121). dl(arrival(11,(lga,cri),6),112). dl(start(12,(ryend,dandy),7),129). dl(arrival(12,(teb,ryend),6),123). dl(start(13,(cimbl,cri),7),104). dl(arrival(13,(ryend,cimbl),6),95). dl(start(14,(lga,cri),7),124). dl(arrival(14,(teb,lga),6),114). dl(start(15,(lga,cimbl),7),109). dl(arrival(15,(teb,lga),6),103). dl(start(16,(cri,lga),7),102). dl(arrival(16,(cimbl,cri),6),92). dl(start(0,(dandy,ryend),8),128). dl(arrival(0,(ryend,dandy),7),122). dl(start(1,(cimbl,ryend),8),127). dl(arrival(1,(lga,cimbl),7),119). dl(start(2,(cimbl,ryend),8),127). dl(arrival(2,(teb,cimbl),7),119). dl(start(3,(cri,jfk),8),127). dl(arrival(3,(lga,cri),7),121). dl(start(4,(cri,jfk),8),118). dl(arrival(4,(cimbl,cri),7),112). dl(start(5,(cimbl,jfk),8),119). dl(arrival(5,(lga,cimbl),7),106). dl(start(6,(ryend,dandy),8),114). dl(arrival(6,(cimbl,ryend),7),108). dl(start(7,(lga,ryend),8),134). dl(arrival(7,(cri,lga),7),120). dl(start(8,(cimbl,ryend),8),124). dl(arrival(8,(cri,cimbl),7),116). dl(start(9,(cimbl,ryend),8),148). dl(arrival(9,(cri,cimbl),7),140). dl(start(10,(cri,cimbl),8),124). dl(arrival(10,(lga,cri),7),115). dl(start(11,(cimbl,ryend),8),135). dl(arrival(11,(cri,cimbl),7),127). dl(start(12,(dandy,ryend),8),139). dl(arrival(12,(ryend,dandy),7),133). dl(start(13,(cri,cimbl),8),119). dl(arrival(13,(cimbl,cri),7),110). dl(start(14,(cri,cimbl),8),139). dl(arrival(14,(lga,cri),7),130). dl(start(15,(cimbl,jfk),8),126). dl(arrival(15,(lga,cimbl),7),113). dl(start(16,(lga,teb),8),117). dl(arrival(16,(cri,lga),7),108). dl(start(3,(jfk,lga),9),140). dl(arrival(3,(cri,jfk),8),130). dl(start(4,(jfk,cimbl),9),134). dl(arrival(4,(cri,jfk),8),121). dl(start(5,(jfk,ryend),9),145). dl(arrival(5,(cimbl,jfk),8),127). dl(start(6,(dandy,ryend),9),124). dl(arrival(6,(ryend,dandy),8),118). dl(start(10,(cimbl,dandy),9),137). dl(arrival(10,(cri,cimbl),8),130). dl(start(13,(cimbl,dandy),9),132). dl(arrival(13,(cri,cimbl),8),125). dl(start(14,(cimbl,dandy),9),152). dl(arrival(14,(cri,cimbl),8),145). dl(start(15,(jfk,teb),9),152). dl(arrival(15,(cimbl,jfk),8),134). dl(start(16,(teb,cimbl),9),128). dl(arrival(16,(lga,teb),8),122). dl(start(3,(lga,dandy),10),159). dl(arrival(3,(jfk,lga),9),146). dl(start(4,(cimbl,lga),10),148). dl(arrival(4,(jfk,cimbl),9),142). dl(start(14,(dandy,ryend),10),162). dl(arrival(14,(cimbl,dandy),9),156). dl(start(15,(teb,dandy),10),169). dl(arrival(15,(jfk,teb),9),163). dl(start(16,(cimbl,lga),10),138). dl(arrival(16,(teb,cimbl),9),132). dl(arrival(0,(ryend,ryend),13),132). dl(arrival(1,(ryend,ryend),13),132). dl(arrival(2,(ryend,ryend),13),132). dl(arrival(3,(dandy,dandy),13),167). dl(arrival(4,(lga,lga),13),152). dl(arrival(5,(ryend,ryend),13),156). dl(arrival(6,(ryend,ryend),13),128). dl(arrival(7,(ryend,ryend),13),143). dl(arrival(8,(ryend,ryend),13),129). dl(arrival(9,(ryend,ryend),13),153). dl(arrival(10,(dandy,dandy),13),141). dl(arrival(11,(ryend,ryend),13),140). dl(arrival(12,(ryend,ryend),13),143). dl(arrival(13,(dandy,dandy),13),136). dl(arrival(14,(ryend,ryend),13),166). dl(arrival(15,(dandy,dandy),13),173). dl(arrival(16,(lga,lga),13),142). dl(start(0,(teb,jfk),1),0). dl(start(1,(ryend,jfk),1),0). dl(start(2,(ryend,cimbl),1),0). dl(start(3,(lga,jfk),1),0). dl(start(4,(teb,cri),1),0). dl(start(5,(jfk,dandy),1),0). dl(start(6,(ryend,cri),1),0). dl(start(7,(dandy,jfk),1),0). dl(start(8,(lga,jfk),1),0). dl(start(9,(teb,jfk),1),0). dl(start(10,(teb,jfk),1),0). dl(start(11,(dandy,jfk),1),0). dl(start(12,(dandy,jfk),1),0). dl(start(13,(ryend,cri),1),0). dl(start(14,(ryend,jfk),1),0). dl(start(15,(lga,jfk),1),0). dl(start(16,(jfk,dandy),1),0).