no_swap(7). no_swap(1). no_swap(2). no_swap(5). no_swap(16). no_swap(17). no_swap(13). no_swap(6). number_of_agent_need_switch(1). as(7,(lga,lga),0,8). as(1,(lga,lga),0,9). as(2,(jfk,jfk),0,9). as(5,(jfk,jfk),0,9). as(7,(lga,lga),0,9). as(16,(lga,lga),0,9). as(1,(lga,lga),0,10). as(2,(jfk,jfk),0,10). as(5,(jfk,jfk),0,10). as(7,(lga,lga),0,10). as(16,(lga,lga),0,10). as(17,(cri,cri),0,10). as(1,(lga,lga),0,11). as(2,(jfk,jfk),0,11). as(5,(jfk,jfk),0,11). as(7,(lga,lga),0,11). as(13,(cri,cri),0,11). as(16,(lga,lga),0,11). as(17,(cri,cri),0,11). as(1,(lga,lga),0,12). as(2,(jfk,jfk),0,12). as(5,(jfk,jfk),0,12). as(6,(lga,lga),0,12). as(7,(lga,lga),0,12). as(13,(cri,cri),0,12). as(16,(lga,lga),0,12). as(17,(cri,cri),0,12). as(1,(lga,lga),0,13). as(2,(jfk,jfk),0,13). as(5,(jfk,jfk),0,13). as(6,(lga,lga),0,13). as(7,(lga,lga),0,13). as(13,(cri,cri),0,13). as(16,(lga,lga),0,13). as(17,(cri,cri),0,13). as(1,(ryend,jfk),4,1). as(2,(dandy,jfk),4,1). as(5,(lga,jfk),1,1). as(6,(lga,jfk),1,1). as(7,(lga,ryend),4,1). as(13,(dandy,jfk),4,1). as(16,(cimbl,ryend),4,1). as(17,(teb,jfk),4,1). as(1,(jfk,teb),4,2). as(2,(jfk,teb),4,2). as(5,(jfk,ryend),4,2). as(6,(jfk,ryend),4,2). as(7,(ryend,jfk),4,2). as(13,(jfk,ryend),4,2). as(16,(ryend,jfk),4,2). as(17,(jfk,ryend),4,2). as(1,(teb,cri),4,3). as(2,(teb,cri),4,3). as(5,(ryend,jfk),4,3). as(6,(ryend,lga),4,3). as(7,(jfk,cri),4,3). as(13,(ryend,lga),4,3). as(16,(jfk,cimbl),1,3). as(17,(ryend,jfk),4,3). as(1,(cri,teb),4,4). as(2,(cri,teb),4,4). as(5,(jfk,dandy),1,4). as(6,(lga,cri),4,4). as(7,(cri,teb),4,4). as(13,(lga,cri),4,4). as(16,(cimbl,jfk),4,4). as(17,(jfk,dandy),1,4). as(1,(teb,jfk),2,5). as(2,(teb,lga),4,5). as(5,(dandy,lga),4,5). as(6,(cri,lga),4,5). as(7,(teb,cri),4,5). as(13,(cri,lga),4,5). as(16,(jfk,lga),4,5). as(17,(dandy,lga),4,5). as(1,(jfk,lga),4,6). as(2,(lga,cimbl),4,6). as(5,(lga,cimbl),4,6). as(6,(lga,cimbl),4,6). as(7,(cri,jfk),4,6). as(13,(lga,cimbl),4,6). as(16,(lga,cimbl),1,6). as(17,(lga,cimbl),1,6). as(1,(lga,teb),1,7). as(2,(cimbl,cri),4,7). as(5,(cimbl,cri),4,7). as(6,(cimbl,ryend),4,7). as(7,(jfk,lga),4,7). as(13,(cimbl,ryend),4,7). as(16,(cimbl,cri),4,7). as(17,(cimbl,cri),4,7). as(1,(teb,lga),4,8). as(2,(cri,jfk),4,8). as(5,(cri,jfk),3,8). as(6,(ryend,teb),4,8). as(13,(ryend,teb),4,8). as(16,(cri,lga),3,8). as(17,(cri,jfk),4,8). as(6,(teb,dandy),4,9). as(13,(teb,cimbl),4,9). as(17,(jfk,cri),2,9). as(6,(dandy,cimbl),4,10). as(13,(cimbl,cri),3,10). as(6,(cimbl,lga),4,11). mixed_best(10,4,teb,1,2,164,176). no_swap(0). no_swap(3). no_swap(11). no_swap(12). no_swap(14). no_swap(9). no_swap(15). as(0,(lga,lga),0,8). as(3,(lga,lga),0,8). as(11,(lga,lga),0,8). as(12,(cri,cri),0,8). as(14,(lga,lga),0,8). as(0,(lga,lga),0,9). as(3,(lga,lga),0,9). as(9,(jfk,jfk),0,9). as(11,(lga,lga),0,9). as(12,(cri,cri),0,9). as(14,(lga,lga),0,9). as(0,(lga,lga),0,10). as(3,(lga,lga),0,10). as(9,(jfk,jfk),0,10). as(11,(lga,lga),0,10). as(12,(cri,cri),0,10). as(14,(lga,lga),0,10). as(15,(lga,lga),0,10). as(0,(lga,lga),0,11). as(3,(lga,lga),0,11). as(9,(jfk,jfk),0,11). as(10,(lga,lga),0,11). as(11,(lga,lga),0,11). as(12,(cri,cri),0,11). as(14,(lga,lga),0,11). as(15,(lga,lga),0,11). as(0,(lga,lga),0,12). as(3,(lga,lga),0,12). as(4,(lga,lga),0,12). as(9,(jfk,jfk),0,12). as(10,(lga,lga),0,12). as(11,(lga,lga),0,12). as(12,(cri,cri),0,12). as(14,(lga,lga),0,12). as(15,(lga,lga),0,12). as(0,(lga,lga),0,13). as(3,(lga,lga),0,13). as(4,(lga,lga),0,13). as(9,(jfk,jfk),0,13). as(11,(lga,lga),0,13). as(12,(cri,cri),0,13). as(14,(lga,lga),0,13). as(15,(lga,lga),0,13). as(0,(cimbl,dandy),4,1). as(3,(cri,dandy),4,1). as(4,(lga,jfk),2,1). as(9,(cimbl,teb),4,1). as(10,(cimbl,teb),4,1). as(11,(jfk,dandy),4,1). as(12,(cimbl,teb),4,1). as(14,(lga,teb),4,1). as(15,(dandy,jfk),4,1). as(0,(dandy,jfk),4,2). as(3,(dandy,jfk),4,2). as(4,(jfk,teb),4,2). as(9,(teb,jfk),4,2). as(11,(dandy,cri),2,2). as(12,(teb,jfk),4,2). as(14,(teb,jfk),4,2). as(15,(jfk,ryend),4,2). as(0,(jfk,cri),4,3). as(3,(jfk,cri),4,3). as(9,(jfk,ryend),1,3). as(11,(cri,dandy),4,3). as(12,(jfk,cimbl),4,3). as(14,(jfk,cri),4,3). as(15,(ryend,lga),4,3). as(0,(cri,dandy),4,4). as(3,(cri,dandy),4,4). as(9,(ryend,lga),4,4). as(11,(dandy,teb),4,4). as(12,(cimbl,ryend),4,4). as(14,(cri,teb),4,4). as(15,(lga,cri),4,4). as(0,(dandy,ryend),4,5). as(3,(dandy,ryend),4,5). as(9,(lga,cri),4,5). as(11,(teb,cri),4,5). as(12,(ryend,lga),4,5). as(14,(teb,ryend),4,5). as(15,(cri,lga),4,5). as(0,(ryend,teb),4,6). as(3,(ryend,teb),4,6). as(9,(cri,lga),4,6). as(11,(cri,jfk),4,6). as(12,(lga,cimbl),1,6). as(14,(ryend,teb),4,6). as(15,(lga,cimbl),2,6). as(0,(teb,lga),4,7). as(3,(teb,lga),4,7). as(9,(lga,cri),1,7). as(11,(jfk,lga),4,7). as(12,(cimbl,cri),4,7). as(14,(teb,lga),4,7). as(15,(cimbl,cri),4,7). as(9,(cri,jfk),4,8). as(15,(cri,jfk),4,8). as(15,(jfk,lga),2,9). as(10,(teb,cri),4,2). as(10,(cri,teb),4,3). as(10,(teb,cri),4,4). as(10,(cri,ryend),3,5). as(10,(ryend,teb),4,6). as(10,(teb,cimbl),4,7). as(10,(cimbl,ryend),4,8). as(10,(ryend,cimbl),4,9). as(10,(cimbl,lga),4,10). as(4,(teb,jfk),4,3). as(4,(lga,lga),0,10). as(4,(lga,lga),0,11). as(4,(lga,lga),0,14). as(4,(jfk,ryend),1,4). as(4,(ryend,lga),4,5). as(4,(lga,cri),4,6). as(4,(cri,lga),4,7). as(4,(lga,teb),1,8). as(4,(teb,lga),4,9). dl(start(7,(lga,lga),8),122). dl(arrival(7,(jfk,lga),7),122). dl(start(1,(lga,lga),9),163). dl(arrival(1,(teb,lga),8),163). dl(start(2,(jfk,jfk),9),139). dl(arrival(2,(cri,jfk),8),139). dl(start(5,(jfk,jfk),9),150). dl(arrival(5,(cri,jfk),8),150). dl(start(7,(lga,lga),9),122). dl(arrival(7,(lga,lga),8),122). dl(start(16,(lga,lga),9),133). dl(arrival(16,(cri,lga),8),133). dl(start(1,(lga,lga),10),163). dl(arrival(1,(lga,lga),9),163). dl(start(2,(jfk,jfk),10),139). dl(arrival(2,(jfk,jfk),9),139). dl(start(5,(jfk,jfk),10),150). dl(arrival(5,(jfk,jfk),9),150). dl(start(7,(lga,lga),10),122). dl(arrival(7,(lga,lga),9),122). dl(start(16,(lga,lga),10),133). dl(arrival(16,(lga,lga),9),133). dl(start(17,(cri,cri),10),164). dl(arrival(17,(jfk,cri),9),164). dl(start(1,(lga,lga),11),163). dl(arrival(1,(lga,lga),10),163). dl(start(2,(jfk,jfk),11),139). dl(arrival(2,(jfk,jfk),10),139). dl(start(5,(jfk,jfk),11),150). dl(arrival(5,(jfk,jfk),10),150). dl(start(7,(lga,lga),11),122). dl(arrival(7,(lga,lga),10),122). dl(start(13,(cri,cri),11),162). dl(arrival(13,(cimbl,cri),10),162). dl(start(16,(lga,lga),11),133). dl(arrival(16,(lga,lga),10),133). dl(start(17,(cri,cri),11),164). dl(arrival(17,(cri,cri),10),164). dl(start(1,(lga,lga),12),163). dl(arrival(1,(lga,lga),11),163). dl(start(2,(jfk,jfk),12),139). dl(arrival(2,(jfk,jfk),11),139). dl(start(5,(jfk,jfk),12),150). dl(arrival(5,(jfk,jfk),11),150). dl(start(6,(lga,lga),12),162). dl(arrival(6,(cimbl,lga),11),162). dl(start(7,(lga,lga),12),122). dl(arrival(7,(lga,lga),11),122). dl(start(13,(cri,cri),12),162). dl(arrival(13,(cri,cri),11),162). dl(start(16,(lga,lga),12),133). dl(arrival(16,(lga,lga),11),133). dl(start(17,(cri,cri),12),164). dl(arrival(17,(cri,cri),11),164). dl(start(1,(lga,lga),13),163). dl(arrival(1,(lga,lga),12),163). dl(start(2,(jfk,jfk),13),139). dl(arrival(2,(jfk,jfk),12),139). dl(start(5,(jfk,jfk),13),150). dl(arrival(5,(jfk,jfk),12),150). dl(start(6,(lga,lga),13),162). dl(arrival(6,(lga,lga),12),162). dl(start(7,(lga,lga),13),122). dl(arrival(7,(lga,lga),12),122). dl(start(13,(cri,cri),13),162). dl(arrival(13,(cri,cri),12),162). dl(start(16,(lga,lga),13),133). dl(arrival(16,(lga,lga),12),133). dl(start(17,(cri,cri),13),164). dl(arrival(17,(cri,cri),12),164). dl(start(1,(jfk,teb),2),29). dl(arrival(1,(ryend,jfk),1),11). dl(start(2,(jfk,teb),2),30). dl(arrival(2,(dandy,jfk),1),12). dl(start(5,(jfk,ryend),2),24). dl(arrival(5,(lga,jfk),1),6). dl(start(6,(jfk,ryend),2),24). dl(arrival(6,(lga,jfk),1),6). dl(start(7,(ryend,jfk),2),27). dl(arrival(7,(lga,ryend),1),9). dl(start(13,(jfk,ryend),2),30). dl(arrival(13,(dandy,jfk),1),12). dl(start(16,(ryend,jfk),2),23). dl(arrival(16,(cimbl,ryend),1),5). dl(start(17,(jfk,ryend),2),29). dl(arrival(17,(teb,jfk),1),11). dl(start(1,(teb,cri),3),55). dl(arrival(1,(jfk,teb),2),40). dl(start(2,(teb,cri),3),56). dl(arrival(2,(jfk,teb),2),41). dl(start(5,(ryend,jfk),3),53). dl(arrival(5,(jfk,ryend),2),35). dl(start(6,(ryend,lga),3),49). dl(arrival(6,(jfk,ryend),2),35). dl(start(7,(jfk,cri),3),44). dl(arrival(7,(ryend,jfk),2),38). dl(start(13,(ryend,lga),3),55). dl(arrival(13,(jfk,ryend),2),41). dl(start(16,(jfk,cimbl),3),47). dl(arrival(16,(ryend,jfk),2),34). dl(start(17,(ryend,jfk),3),58). dl(arrival(17,(jfk,ryend),2),40). dl(start(1,(cri,teb),4),80). dl(arrival(1,(teb,cri),3),65). dl(start(2,(cri,teb),4),81). dl(arrival(2,(teb,cri),3),66). dl(start(5,(jfk,dandy),4),83). dl(arrival(5,(ryend,jfk),3),64). dl(start(6,(lga,cri),4),68). dl(arrival(6,(ryend,lga),3),58). dl(start(7,(cri,teb),4),62). dl(arrival(7,(jfk,cri),3),47). dl(start(13,(lga,cri),4),74). dl(arrival(13,(ryend,lga),3),64). dl(start(16,(cimbl,jfk),4),68). dl(arrival(16,(jfk,cimbl),3),55). dl(start(17,(jfk,dandy),4),88). dl(arrival(17,(ryend,jfk),3),69). dl(start(1,(teb,jfk),5),108). dl(arrival(1,(cri,teb),4),90). dl(start(2,(teb,lga),5),100). dl(arrival(2,(cri,teb),4),91). dl(start(5,(dandy,lga),5),108). dl(arrival(5,(jfk,dandy),4),95). dl(start(6,(cri,lga),5),84). dl(arrival(6,(lga,cri),4),74). dl(start(7,(teb,cri),5),87). dl(arrival(7,(cri,teb),4),72). dl(start(13,(cri,lga),5),90). dl(arrival(13,(lga,cri),4),80). dl(start(16,(jfk,lga),5),86). dl(arrival(16,(cimbl,jfk),4),76). dl(start(17,(dandy,lga),5),113). dl(arrival(17,(jfk,dandy),4),100). dl(start(1,(jfk,lga),6),129). dl(arrival(1,(teb,jfk),5),119). dl(start(2,(lga,cimbl),6),111). dl(arrival(2,(teb,lga),5),105). dl(start(5,(lga,cimbl),6),122). dl(arrival(5,(dandy,lga),5),116). dl(start(6,(lga,cimbl),6),96). dl(arrival(6,(cri,lga),5),90). dl(start(7,(cri,jfk),6),103). dl(arrival(7,(teb,cri),5),97). dl(start(13,(lga,cimbl),6),102). dl(arrival(13,(cri,lga),5),96). dl(start(16,(lga,cimbl),6),98). dl(arrival(16,(jfk,lga),5),92). dl(start(17,(lga,cimbl),6),127). dl(arrival(17,(dandy,lga),5),121). dl(start(1,(lga,teb),7),144). dl(arrival(1,(jfk,lga),6),135). dl(start(2,(cimbl,cri),7),124). dl(arrival(2,(lga,cimbl),6),115). dl(start(5,(cimbl,cri),7),135). dl(arrival(5,(lga,cimbl),6),126). dl(start(6,(cimbl,ryend),7),108). dl(arrival(6,(lga,cimbl),6),100). dl(start(7,(jfk,lga),7),116). dl(arrival(7,(cri,jfk),6),106). dl(start(13,(cimbl,ryend),7),114). dl(arrival(13,(lga,cimbl),6),106). dl(start(16,(cimbl,cri),7),111). dl(arrival(16,(lga,cimbl),6),102). dl(start(17,(cimbl,cri),7),140). dl(arrival(17,(lga,cimbl),6),131). dl(start(1,(teb,lga),8),158). dl(arrival(1,(lga,teb),7),149). dl(start(2,(cri,jfk),8),136). dl(arrival(2,(cimbl,cri),7),130). dl(start(5,(cri,jfk),8),147). dl(arrival(5,(cimbl,cri),7),141). dl(start(6,(ryend,teb),8),124). dl(arrival(6,(cimbl,ryend),7),113). dl(start(13,(ryend,teb),8),130). dl(arrival(13,(cimbl,ryend),7),119). dl(start(16,(cri,lga),8),127). dl(arrival(16,(cimbl,cri),7),117). dl(start(17,(cri,jfk),8),152). dl(arrival(17,(cimbl,cri),7),146). dl(start(6,(teb,dandy),9),137). dl(arrival(6,(ryend,teb),8),131). dl(start(13,(teb,cimbl),9),143). dl(arrival(13,(ryend,teb),8),137). dl(start(17,(jfk,cri),9),161). dl(arrival(17,(cri,jfk),8),155). dl(start(6,(dandy,cimbl),10),148). dl(arrival(6,(teb,dandy),9),141). dl(start(13,(cimbl,cri),10),156). dl(arrival(13,(teb,cimbl),9),147). dl(start(6,(cimbl,lga),11),158). dl(arrival(6,(dandy,cimbl),10),152). dl(start(0,(lga,lga),8),111). dl(arrival(0,(teb,lga),7),111). dl(start(3,(lga,lga),8),117). dl(arrival(3,(teb,lga),7),117). dl(start(11,(lga,lga),8),122). dl(arrival(11,(jfk,lga),7),122). dl(start(12,(cri,cri),8),115). dl(arrival(12,(cimbl,cri),7),115). dl(start(14,(lga,lga),8),118). dl(arrival(14,(teb,lga),7),118). dl(start(0,(lga,lga),9),111). dl(arrival(0,(lga,lga),8),111). dl(start(3,(lga,lga),9),117). dl(arrival(3,(lga,lga),8),117). dl(start(9,(jfk,jfk),9),142). dl(arrival(9,(cri,jfk),8),142). dl(start(11,(lga,lga),9),122). dl(arrival(11,(lga,lga),8),122). dl(start(12,(cri,cri),9),115). dl(arrival(12,(cri,cri),8),115). dl(start(14,(lga,lga),9),118). dl(arrival(14,(lga,lga),8),118). dl(start(0,(lga,lga),10),111). dl(arrival(0,(lga,lga),9),111). dl(start(3,(lga,lga),10),117). dl(arrival(3,(lga,lga),9),117). dl(start(9,(jfk,jfk),10),142). dl(arrival(9,(jfk,jfk),9),142). dl(start(11,(lga,lga),10),122). dl(arrival(11,(lga,lga),9),122). dl(start(12,(cri,cri),10),115). dl(arrival(12,(cri,cri),9),115). dl(start(14,(lga,lga),10),118). dl(arrival(14,(lga,lga),9),118). dl(start(15,(lga,lga),10),146). dl(arrival(15,(jfk,lga),9),146). dl(start(0,(lga,lga),11),111). dl(arrival(0,(lga,lga),10),111). dl(start(3,(lga,lga),11),117). dl(arrival(3,(lga,lga),10),117). dl(start(9,(jfk,jfk),11),142). dl(arrival(9,(jfk,jfk),10),142). dl(start(10,(lga,lga),11),164). dl(arrival(10,(cimbl,lga),10),164). dl(start(11,(lga,lga),11),122). dl(arrival(11,(lga,lga),10),122). dl(start(12,(cri,cri),11),115). dl(arrival(12,(cri,cri),10),115). dl(start(14,(lga,lga),11),118). dl(arrival(14,(lga,lga),10),118). dl(start(15,(lga,lga),11),146). dl(arrival(15,(lga,lga),10),146). dl(start(0,(lga,lga),12),111). dl(arrival(0,(lga,lga),11),111). dl(start(3,(lga,lga),12),117). dl(arrival(3,(lga,lga),11),117). dl(start(4,(lga,lga),12),176). dl(arrival(4,(lga,lga),11),176). dl(start(9,(jfk,jfk),12),142). dl(arrival(9,(jfk,jfk),11),142). dl(start(10,(lga,lga),12),164). dl(arrival(10,(lga,lga),11),164). dl(start(11,(lga,lga),12),122). dl(arrival(11,(lga,lga),11),122). dl(start(12,(cri,cri),12),115). dl(arrival(12,(cri,cri),11),115). dl(start(14,(lga,lga),12),118). dl(arrival(14,(lga,lga),11),118). dl(start(15,(lga,lga),12),146). dl(arrival(15,(lga,lga),11),146). dl(start(0,(lga,lga),13),111). dl(arrival(0,(lga,lga),12),111). dl(start(3,(lga,lga),13),117). dl(arrival(3,(lga,lga),12),117). dl(start(4,(lga,lga),13),176). dl(arrival(4,(lga,lga),12),176). dl(start(9,(jfk,jfk),13),142). dl(arrival(9,(jfk,jfk),12),142). dl(start(11,(lga,lga),13),122). dl(arrival(11,(lga,lga),12),122). dl(start(12,(cri,cri),13),115). dl(arrival(12,(cri,cri),12),115). dl(start(14,(lga,lga),13),118). dl(arrival(14,(lga,lga),12),118). dl(start(15,(lga,lga),13),146). dl(arrival(15,(lga,lga),12),146). dl(start(0,(dandy,jfk),2),23). dl(arrival(0,(cimbl,dandy),1),4). dl(start(3,(dandy,jfk),2),29). dl(arrival(3,(cri,dandy),1),10). dl(start(4,(jfk,teb),2),24). dl(arrival(4,(lga,jfk),1),6). dl(start(9,(teb,jfk),2),22). dl(arrival(9,(cimbl,teb),1),4). dl(start(11,(dandy,cri),2),27). dl(arrival(11,(jfk,dandy),1),12). dl(start(12,(teb,jfk),2),22). dl(arrival(12,(cimbl,teb),1),4). dl(start(14,(teb,jfk),2),23). dl(arrival(14,(lga,teb),1),5). dl(start(15,(jfk,ryend),2),30). dl(arrival(15,(dandy,jfk),1),12). dl(start(0,(jfk,cri),3),41). dl(arrival(0,(dandy,jfk),2),35). dl(start(3,(jfk,cri),3),47). dl(arrival(3,(dandy,jfk),2),41). dl(start(9,(jfk,ryend),3),51). dl(arrival(9,(teb,jfk),2),33). dl(start(11,(cri,dandy),3),52). dl(arrival(11,(dandy,cri),2),37). dl(start(12,(jfk,cimbl),3),46). dl(arrival(12,(teb,jfk),2),33). dl(start(14,(jfk,cri),3),40). dl(arrival(14,(teb,jfk),2),34). dl(start(15,(ryend,lga),3),55). dl(arrival(15,(jfk,ryend),2),41). dl(start(0,(cri,dandy),4),59). dl(arrival(0,(jfk,cri),3),44). dl(start(3,(cri,dandy),4),65). dl(arrival(3,(jfk,cri),3),50). dl(start(9,(ryend,lga),4),76). dl(arrival(9,(jfk,ryend),3),62). dl(start(11,(dandy,teb),4),68). dl(arrival(11,(cri,dandy),3),62). dl(start(12,(cimbl,ryend),4),62). dl(arrival(12,(jfk,cimbl),3),54). dl(start(14,(cri,teb),4),58). dl(arrival(14,(jfk,cri),3),43). dl(start(15,(lga,cri),4),74). dl(arrival(15,(ryend,lga),3),64). dl(start(0,(dandy,ryend),5),75). dl(arrival(0,(cri,dandy),4),69). dl(start(3,(dandy,ryend),5),81). dl(arrival(3,(cri,dandy),4),75). dl(start(9,(lga,cri),5),95). dl(arrival(9,(ryend,lga),4),85). dl(start(11,(teb,cri),5),87). dl(arrival(11,(dandy,teb),4),72). dl(start(12,(ryend,lga),5),81). dl(arrival(12,(cimbl,ryend),4),67). dl(start(14,(teb,ryend),5),79). dl(arrival(14,(cri,teb),4),68). dl(start(15,(cri,lga),5),90). dl(arrival(15,(lga,cri),4),80). dl(start(0,(ryend,teb),6),90). dl(arrival(0,(dandy,ryend),5),79). dl(start(3,(ryend,teb),6),96). dl(arrival(3,(dandy,ryend),5),85). dl(start(9,(cri,lga),6),111). dl(arrival(9,(lga,cri),5),101). dl(start(11,(cri,jfk),6),103). dl(arrival(11,(teb,cri),5),97). dl(start(12,(lga,cimbl),6),96). dl(arrival(12,(ryend,lga),5),90). dl(start(14,(ryend,teb),6),97). dl(arrival(14,(teb,ryend),5),86). dl(start(15,(lga,cimbl),6),102). dl(arrival(15,(cri,lga),5),96). dl(start(0,(teb,lga),7),106). dl(arrival(0,(ryend,teb),6),97). dl(start(3,(teb,lga),7),112). dl(arrival(3,(ryend,teb),6),103). dl(start(9,(lga,cri),7),127). dl(arrival(9,(cri,lga),6),117). dl(start(11,(jfk,lga),7),116). dl(arrival(11,(cri,jfk),6),106). dl(start(12,(cimbl,cri),7),109). dl(arrival(12,(lga,cimbl),6),100). dl(start(14,(teb,lga),7),113). dl(arrival(14,(ryend,teb),6),104). dl(start(15,(cimbl,cri),7),115). dl(arrival(15,(lga,cimbl),6),106). dl(start(9,(cri,jfk),8),139). dl(arrival(9,(lga,cri),7),133). dl(start(15,(cri,jfk),8),127). dl(arrival(15,(cimbl,cri),7),121). dl(start(15,(jfk,lga),9),140). dl(arrival(15,(cri,jfk),8),130). dl(start(10,(teb,cri),2),19). dl(arrival(10,(cimbl,teb),1),4). dl(start(10,(cri,teb),3),44). dl(arrival(10,(teb,cri),2),29). dl(start(10,(teb,cri),4),69). dl(arrival(10,(cri,teb),3),54). dl(start(10,(cri,ryend),5),92). dl(arrival(10,(teb,cri),4),79). dl(start(10,(ryend,teb),6),111). dl(arrival(10,(cri,ryend),5),100). dl(start(10,(teb,cimbl),7),124). dl(arrival(10,(ryend,teb),6),118). dl(start(10,(cimbl,ryend),8),136). dl(arrival(10,(teb,cimbl),7),128). dl(start(10,(ryend,cimbl),9),149). dl(arrival(10,(cimbl,ryend),8),141). dl(start(10,(cimbl,lga),10),160). dl(arrival(10,(ryend,cimbl),9),154). dl(start(4,(teb,jfk),3),53). dl(arrival(4,(jfk,teb),2),35). dl(start(4,(lga,lga),10),176). dl(arrival(4,(teb,lga),9),176). dl(start(4,(lga,lga),11),176). dl(arrival(4,(lga,lga),10),176). dl(start(4,(lga,lga),14),176). dl(arrival(4,(lga,lga),13),176). dl(start(4,(jfk,ryend),4),82). dl(arrival(4,(teb,jfk),3),64). dl(start(4,(ryend,lga),5),107). dl(arrival(4,(jfk,ryend),4),93). dl(start(4,(lga,cri),6),126). dl(arrival(4,(ryend,lga),5),116). dl(start(4,(cri,lga),7),142). dl(arrival(4,(lga,cri),6),132). dl(start(4,(lga,teb),8),157). dl(arrival(4,(cri,lga),7),148). dl(start(4,(teb,lga),9),171). dl(arrival(4,(lga,teb),8),162). dl(arrival(1,(lga,lga),13),163). dl(arrival(2,(jfk,jfk),13),139). dl(arrival(5,(jfk,jfk),13),150). dl(arrival(6,(lga,lga),13),162). dl(arrival(7,(lga,lga),13),122). dl(arrival(13,(cri,cri),13),162). dl(arrival(16,(lga,lga),13),133). dl(arrival(17,(cri,cri),13),164). dl(start(1,(ryend,jfk),1),0). dl(start(2,(dandy,jfk),1),0). dl(start(5,(lga,jfk),1),0). dl(start(6,(lga,jfk),1),0). dl(start(7,(lga,ryend),1),0). dl(start(13,(dandy,jfk),1),0). dl(start(16,(cimbl,ryend),1),0). dl(start(17,(teb,jfk),1),0). dl(arrival(10,(lga,lga),12),164). dl(arrival(0,(lga,lga),13),111). dl(arrival(3,(lga,lga),13),117). dl(arrival(9,(jfk,jfk),13),142). dl(arrival(11,(lga,lga),13),122). dl(arrival(12,(cri,cri),13),115). dl(arrival(14,(lga,lga),13),118). dl(arrival(15,(lga,lga),13),146). dl(start(0,(cimbl,dandy),1),0). dl(start(3,(cri,dandy),1),0). dl(start(4,(lga,jfk),1),0). dl(start(9,(cimbl,teb),1),0). dl(start(10,(cimbl,teb),1),0). dl(start(11,(jfk,dandy),1),0). dl(start(12,(cimbl,teb),1),0). dl(start(14,(lga,teb),1),0). dl(start(15,(dandy,jfk),1),0). dl(arrival(4,(lga,lga),14),176).